********************************************************************************
Field Output Report, written Fri Feb 15 18:41:59 2019

Source 1
---------

   ODB: C:/Scratch/F100-19.odb
   Step: RotateUp
   Frame: Increment      1: Step Time =    1.000

Loc 1 : Element nodal  values at shell < ALUMINIUM > < 5 section points > from source 1 : SNEG, (fraction = -1.0) ( Average criteria = 75%, Not averaged across region boundaries )
Loc 2 : Element nodal  values at shell < ALUMINIUM > < 5 section points > from source 1 : SPOS, (fraction = 1.0) ( Average criteria = 75%, Not averaged across region boundaries )

Output sorted by column "Node Label".

Field Output reported at element nodes for region: F100-1.Region_1
   Computation algorithm: EXTRAPOLATE_COMPUTE_AVERAGE
   Averaged at nodes
   Averaging regions: ODB_REGIONS

   Element Label      Node Label         S.Mises         S.Mises
                                          @Loc 1          @Loc 2
-----------------------------------------------------------------
            1132               1     4.54043E-03     4.46500E-03
            2387               1     4.54043E-03     4.46500E-03
             596               1     4.54043E-03     4.46500E-03
               1               1     4.54043E-03     4.46500E-03
             685               2     636.589E-06     3.37361E-03
            1956               2     636.589E-06     3.37361E-03
            2371               2     636.589E-06     3.37361E-03
              17               2     636.589E-06     3.37361E-03
             595               3     199.146E-03     205.273E-03
            2126               3     199.146E-03     205.273E-03
            1736               3     199.146E-03     205.273E-03
            1047               3     199.146E-03     205.273E-03
             579               4     14.0391E-03     18.3817E-03
            1710               4     14.0391E-03     18.3817E-03
            1777               4     14.0391E-03     18.3817E-03
            1031               4     14.0391E-03     18.3817E-03
             612               5     636.589E-06     3.37361E-03
            1711               5     636.589E-06     3.37361E-03
             710               5     636.589E-06     3.37361E-03
            1116               5     636.589E-06     3.37361E-03
            1731               6     6.86614E-15     7.30543E-15
             680               6     6.86614E-15     7.30543E-15
            2455               7     4.32876E-15     11.6216E-15
             664               7     4.32876E-15     11.6216E-15
            1960               8     22.5964E-03     22.3148E-03
             706               8     22.5964E-03     22.3148E-03
            1715               8     22.5964E-03     22.3148E-03
             681               8     22.5964E-03     22.3148E-03
            2439               9     16.1920E-15     15.1725E-15
             705               9     16.1920E-15     15.1725E-15
            1735              10     18.5532E-15     17.8258E-15
             701              10     18.5532E-15     17.8258E-15
             880              11     199.146E-03     205.273E-03
            1761              11     199.146E-03     205.273E-03
            2800              11     199.146E-03     205.273E-03
            1694              11     199.146E-03     205.273E-03
             876              12     50.1202E-03     52.8764E-03
            2796              12     50.1202E-03     52.8764E-03
            1740              12     50.1202E-03     52.8764E-03
            2130              12     50.1202E-03     52.8764E-03
            1756              16     231.592E-03     245.201E-03
            1115              16     231.592E-03     245.201E-03
            2251              16     231.592E-03     245.201E-03
            1862              16     231.592E-03     245.201E-03
            1846              18     6.64279E-03     10.9885E-03
            2727              18     6.64279E-03     10.9885E-03
            1099              18     6.64279E-03     10.9885E-03
            1845              18     6.64279E-03     10.9885E-03
            2816              19     69.1511E-03     69.1830E-03
            1931              19     69.1511E-03     69.1830E-03
            2255              19     69.1511E-03     69.1830E-03
            1760              19     69.1511E-03     69.1830E-03
            1829              20     231.592E-03     245.201E-03
            2820              20     231.592E-03     245.201E-03
            1935              20     231.592E-03     245.201E-03
            2711              20     231.592E-03     245.201E-03
            3072              21     149.033E-03     156.040E-03
            1930              21     149.033E-03     156.040E-03
            2271              21     149.033E-03     156.040E-03
            2836              21     149.033E-03     156.040E-03
            2795              22     26.8976E-03     31.1683E-03
            2472              22     26.8976E-03     31.1683E-03
            1914              22     26.8976E-03     31.1683E-03
            3056              22     26.8976E-03     31.1683E-03
            2456              23     149.033E-03     156.040E-03
            2779              23     149.033E-03     156.040E-03
            2280              23     149.033E-03     156.040E-03
            1955              23     149.033E-03     156.040E-03
            2275              24     118.386E-03     118.451E-03
            2276              24     118.386E-03     118.451E-03
            2840              24     118.386E-03     118.451E-03
            1951              24     118.386E-03     118.451E-03
            2971              26     8.43102E-03     8.56243E-03
            2609              26     8.43102E-03     8.56243E-03
            3230              26     8.43102E-03     8.56243E-03
            2325              26     8.43102E-03     8.56243E-03
            2885              27     38.1202E-03     38.2541E-03
            2321              27     38.1202E-03     38.2541E-03
            3226              27     38.1202E-03     38.2541E-03
            2920              27     38.1202E-03     38.2541E-03
            2642              28     8.43102E-03     8.56243E-03
            3225              28     8.43102E-03     8.56243E-03
            2881              28     8.43102E-03     8.56243E-03
            2916              28     8.43102E-03     8.56243E-03
            3209              30     1.47214E-03     1.61074E-03
            2626              30     1.47214E-03     1.61074E-03
            2625              30     1.47214E-03     1.61074E-03
            2987              30     1.47214E-03     1.61074E-03
            2710              31     10.9005E-15     11.2567E-15
            2936              31     10.9005E-15     11.2567E-15
            2694              32     13.4165E-15     5.67058E-15
            3055              32     13.4165E-15     5.67058E-15
            3250              34     8.61748E-15     9.91131E-15
            3039              34     8.61748E-15     9.91131E-15
            3246              35     7.93355E-15     7.91265E-15
            2940              35     7.93355E-15     7.91265E-15
            2387              36     4.59119E-03     4.44225E-03
               2              36     4.59119E-03     4.44225E-03
               1              36     4.59119E-03     4.44225E-03
            2386              36     4.59119E-03     4.44225E-03
            2385              37     4.68584E-03     4.39183E-03
            2386              37     4.68584E-03     4.39183E-03
               3              37     4.68584E-03     4.39183E-03
               2              37     4.68584E-03     4.39183E-03
               4              38     4.77572E-03     4.33856E-03
            2385              38     4.77572E-03     4.33856E-03
               3              38     4.77572E-03     4.33856E-03
            2384              38     4.77572E-03     4.33856E-03
            2384              39     4.86940E-03     4.28944E-03
               4              39     4.86940E-03     4.28944E-03
               5              39     4.86940E-03     4.28944E-03
            2383              39     4.86940E-03     4.28944E-03
               5              40     4.96689E-03     4.24623E-03
               6              40     4.96689E-03     4.24623E-03
            2383              40     4.96689E-03     4.24623E-03
            2382              40     4.96689E-03     4.24623E-03
               6              41     5.06919E-03     4.20933E-03
            2382              41     5.06919E-03     4.20933E-03
               7              41     5.06919E-03     4.20933E-03
            2381              41     5.06919E-03     4.20933E-03
               8              42     5.17516E-03     4.17958E-03
               7              42     5.17516E-03     4.17958E-03
            2381              42     5.17516E-03     4.17958E-03
            2380              42     5.17516E-03     4.17958E-03
            2380              43     5.28593E-03     4.15619E-03
            2379              43     5.28593E-03     4.15619E-03
               8              43     5.28593E-03     4.15619E-03
               9              43     5.28593E-03     4.15619E-03
            2379              44     5.39950E-03     4.14104E-03
            2378              44     5.39950E-03     4.14104E-03
              10              44     5.39950E-03     4.14104E-03
               9              44     5.39950E-03     4.14104E-03
              10              45     5.51698E-03     4.13095E-03
            2378              45     5.51698E-03     4.13095E-03
              11              45     5.51698E-03     4.13095E-03
            2377              45     5.51698E-03     4.13095E-03
            2377              46     5.64093E-03     4.13315E-03
              11              46     5.64093E-03     4.13315E-03
              12              46     5.64093E-03     4.13315E-03
            2376              46     5.64093E-03     4.13315E-03
            2376              47     5.75033E-03     4.12721E-03
            2375              47     5.75033E-03     4.12721E-03
              13              47     5.75033E-03     4.12721E-03
              12              47     5.75033E-03     4.12721E-03
              13              48     5.93261E-03     4.18256E-03
            2375              48     5.93261E-03     4.18256E-03
            2374              48     5.93261E-03     4.18256E-03
              14              48     5.93261E-03     4.18256E-03
            2373              49     5.85419E-03     4.04009E-03
              14              49     5.85419E-03     4.04009E-03
              15              49     5.85419E-03     4.04009E-03
            2374              49     5.85419E-03     4.04009E-03
              15              50     6.71892E-03     4.69991E-03
            2373              50     6.71892E-03     4.69991E-03
            2372              50     6.71892E-03     4.69991E-03
              16              50     6.71892E-03     4.69991E-03
              17              51     4.42555E-03     4.20053E-03
            2372              51     4.42555E-03     4.20053E-03
            2371              51     4.42555E-03     4.20053E-03
              16              51     4.42555E-03     4.20053E-03
            1961              52     6.00990E-03     12.5901E-03
              34              52     6.00990E-03     12.5901E-03
              17              52     6.00990E-03     12.5901E-03
            1956              52     6.00990E-03     12.5901E-03
            1966              53     10.5901E-03     14.5062E-03
              34              53     10.5901E-03     14.5062E-03
              51              53     10.5901E-03     14.5062E-03
            1961              53     10.5901E-03     14.5062E-03
              51              54     12.6523E-03     14.0114E-03
            1966              54     12.6523E-03     14.0114E-03
              68              54     12.6523E-03     14.0114E-03
            1971              54     12.6523E-03     14.0114E-03
              68              55     22.0326E-03     21.1907E-03
              85              55     22.0326E-03     21.1907E-03
            1971              55     22.0326E-03     21.1907E-03
            1976              55     22.0326E-03     21.1907E-03
              85              56     31.6539E-03     32.7418E-03
            1976              56     31.6539E-03     32.7418E-03
            1981              56     31.6539E-03     32.7418E-03
             102              56     31.6539E-03     32.7418E-03
            1981              57     43.7189E-03     42.7773E-03
             102              57     43.7189E-03     42.7773E-03
             119              57     43.7189E-03     42.7773E-03
            1986              57     43.7189E-03     42.7773E-03
            1991              58     54.4506E-03     55.1844E-03
             136              58     54.4506E-03     55.1844E-03
             119              58     54.4506E-03     55.1844E-03
            1986              58     54.4506E-03     55.1844E-03
            1996              59     48.8012E-03     52.1565E-03
             136              59     48.8012E-03     52.1565E-03
            1991              59     48.8012E-03     52.1565E-03
             153              59     48.8012E-03     52.1565E-03
            2001              60     47.0652E-03     44.4717E-03
            1996              60     47.0652E-03     44.4717E-03
             153              60     47.0652E-03     44.4717E-03
             170              60     47.0652E-03     44.4717E-03
            2001              61     56.2946E-03     56.6411E-03
             170              61     56.2946E-03     56.6411E-03
            2006              61     56.2946E-03     56.6411E-03
             187              61     56.2946E-03     56.6411E-03
            2006              62     67.1710E-03     66.3936E-03
            2011              62     67.1710E-03     66.3936E-03
             187              62     67.1710E-03     66.3936E-03
             204              62     67.1710E-03     66.3936E-03
            2011              63     75.6078E-03     78.2301E-03
             221              63     75.6078E-03     78.2301E-03
            2016              63     75.6078E-03     78.2301E-03
             204              63     75.6078E-03     78.2301E-03
             238              64     88.8134E-03     87.4412E-03
            2016              64     88.8134E-03     87.4412E-03
            2021              64     88.8134E-03     87.4412E-03
             221              64     88.8134E-03     87.4412E-03
             255              65     99.6047E-03     99.6994E-03
            2021              65     99.6047E-03     99.6994E-03
            2026              65     99.6047E-03     99.6994E-03
             238              65     99.6047E-03     99.6994E-03
             255              66     91.3460E-03     97.1576E-03
            2026              66     91.3460E-03     97.1576E-03
             272              66     91.3460E-03     97.1576E-03
            2031              66     91.3460E-03     97.1576E-03
             272              67     90.1452E-03     87.8719E-03
             289              67     90.1452E-03     87.8719E-03
            2036              67     90.1452E-03     87.8719E-03
            2031              67     90.1452E-03     87.8719E-03
            2036              68     101.348E-03     99.0806E-03
             289              68     101.348E-03     99.0806E-03
             306              68     101.348E-03     99.0806E-03
            2041              68     101.348E-03     99.0806E-03
             306              69     108.744E-03     113.268E-03
            2041              69     108.744E-03     113.268E-03
            2046              69     108.744E-03     113.268E-03
             323              69     108.744E-03     113.268E-03
            2051              70     123.953E-03     121.460E-03
             340              70     123.953E-03     121.460E-03
             323              70     123.953E-03     121.460E-03
            2046              70     123.953E-03     121.460E-03
             340              71     134.883E-03     134.701E-03
            2051              71     134.883E-03     134.701E-03
            2056              71     134.883E-03     134.701E-03
             357              71     134.883E-03     134.701E-03
            2056              72     126.413E-03     134.504E-03
             374              72     126.413E-03     134.504E-03
            2061              72     126.413E-03     134.504E-03
             357              72     126.413E-03     134.504E-03
             391              73     128.029E-03     123.820E-03
            2061              73     128.029E-03     123.820E-03
            2066              73     128.029E-03     123.820E-03
             374              73     128.029E-03     123.820E-03
            2071              74     136.618E-03     136.598E-03
             408              74     136.618E-03     136.598E-03
             391              74     136.618E-03     136.598E-03
            2066              74     136.618E-03     136.598E-03
            2076              75     146.285E-03     146.710E-03
             408              75     146.285E-03     146.710E-03
            2071              75     146.285E-03     146.710E-03
             425              75     146.285E-03     146.710E-03
             442              76     154.800E-03     158.628E-03
            2076              76     154.800E-03     158.628E-03
             425              76     154.800E-03     158.628E-03
            2081              76     154.800E-03     158.628E-03
            2081              77     169.415E-03     167.637E-03
            2086              77     169.415E-03     167.637E-03
             442              77     169.415E-03     167.637E-03
             459              77     169.415E-03     167.637E-03
             476              78     181.093E-03     179.700E-03
             459              78     181.093E-03     179.700E-03
            2091              78     181.093E-03     179.700E-03
            2086              78     181.093E-03     179.700E-03
             493              79     169.387E-03     180.082E-03
            2091              79     169.387E-03     180.082E-03
             476              79     169.387E-03     180.082E-03
            2096              79     169.387E-03     180.082E-03
            2101              80     170.879E-03     167.666E-03
             493              80     170.879E-03     167.666E-03
             510              80     170.879E-03     167.666E-03
            2096              80     170.879E-03     167.666E-03
            2106              81     182.177E-03     178.262E-03
             527              81     182.177E-03     178.262E-03
            2101              81     182.177E-03     178.262E-03
             510              81     182.177E-03     178.262E-03
             527              82     186.766E-03     194.628E-03
            2106              82     186.766E-03     194.628E-03
            2111              82     186.766E-03     194.628E-03
             544              82     186.766E-03     194.628E-03
            2116              83     204.831E-03     200.684E-03
            2111              83     204.831E-03     200.684E-03
             561              83     204.831E-03     200.684E-03
             544              83     204.831E-03     200.684E-03
            2121              84     215.717E-03     214.621E-03
             561              84     215.717E-03     214.621E-03
            2116              84     215.717E-03     214.621E-03
             578              84     215.717E-03     214.621E-03
            2126              85     203.857E-03     215.352E-03
             595              85     203.857E-03     215.352E-03
             578              85     203.857E-03     215.352E-03
            2121              85     203.857E-03     215.352E-03
             595              86     195.401E-03     196.495E-03
            1046              86     195.401E-03     196.495E-03
             594              86     195.401E-03     196.495E-03
            1047              86     195.401E-03     196.495E-03
             594              87     186.870E-03     187.416E-03
            1045              87     186.870E-03     187.416E-03
             593              87     186.870E-03     187.416E-03
            1046              87     186.870E-03     187.416E-03
            1045              88     176.255E-03     177.374E-03
             593              88     176.255E-03     177.374E-03
            1044              88     176.255E-03     177.374E-03
             592              88     176.255E-03     177.374E-03
             591              89     164.721E-03     166.192E-03
             592              89     164.721E-03     166.192E-03
            1043              89     164.721E-03     166.192E-03
            1044              89     164.721E-03     166.192E-03
            1043              90     152.729E-03     154.291E-03
             590              90     152.729E-03     154.291E-03
            1042              90     152.729E-03     154.291E-03
             591              90     152.729E-03     154.291E-03
            1041              91     140.456E-03     142.120E-03
             589              91     140.456E-03     142.120E-03
             590              91     140.456E-03     142.120E-03
            1042              91     140.456E-03     142.120E-03
             589              92     128.129E-03     129.790E-03
             588              92     128.129E-03     129.790E-03
            1041              92     128.129E-03     129.790E-03
            1040              92     128.129E-03     129.790E-03
            1039              93     115.673E-03     117.330E-03
             587              93     115.673E-03     117.330E-03
            1040              93     115.673E-03     117.330E-03
             588              93     115.673E-03     117.330E-03
            1038              94     103.190E-03     104.850E-03
             586              94     103.190E-03     104.850E-03
             587              94     103.190E-03     104.850E-03
            1039              94     103.190E-03     104.850E-03
            1038              95     90.6765E-03     92.3358E-03
             585              95     90.6765E-03     92.3358E-03
            1037              95     90.6765E-03     92.3358E-03
             586              95     90.6765E-03     92.3358E-03
             585              96     78.1919E-03     79.8691E-03
            1036              96     78.1919E-03     79.8691E-03
             584              96     78.1919E-03     79.8691E-03
            1037              96     78.1919E-03     79.8691E-03
             584              97     65.7684E-03     67.4752E-03
            1035              97     65.7684E-03     67.4752E-03
             583              97     65.7684E-03     67.4752E-03
            1036              97     65.7684E-03     67.4752E-03
            1035              98     53.4920E-03     55.2451E-03
             582              98     53.4920E-03     55.2451E-03
            1034              98     53.4920E-03     55.2451E-03
             583              98     53.4920E-03     55.2451E-03
             582              99     41.5299E-03     43.2696E-03
            1034              99     41.5299E-03     43.2696E-03
             581              99     41.5299E-03     43.2696E-03
            1033              99     41.5299E-03     43.2696E-03
             580             100     30.1609E-03     31.9290E-03
             581             100     30.1609E-03     31.9290E-03
            1032             100     30.1609E-03     31.9290E-03
            1033             100     30.1609E-03     31.9290E-03
            1032             101     19.3511E-03     22.4297E-03
             579             101     19.3511E-03     22.4297E-03
            1031             101     19.3511E-03     22.4297E-03
             580             101     19.3511E-03     22.4297E-03
            1710             102     5.96312E-03     9.36541E-03
            1693             102     5.96312E-03     9.36541E-03
             579             102     5.96312E-03     9.36541E-03
             562             102     5.96312E-03     9.36541E-03
            1676             103     4.85051E-03     10.8594E-03
            1693             103     4.85051E-03     10.8594E-03
             545             103     4.85051E-03     10.8594E-03
             562             103     4.85051E-03     10.8594E-03
             545             104     4.72906E-03     11.1445E-03
            1676             104     4.72906E-03     11.1445E-03
             528             104     4.72906E-03     11.1445E-03
            1659             104     4.72906E-03     11.1445E-03
             511             105     11.1135E-03     12.2294E-03
            1642             105     11.1135E-03     12.2294E-03
            1659             105     11.1135E-03     12.2294E-03
             528             105     11.1135E-03     12.2294E-03
             511             106     17.7320E-03     19.6179E-03
             494             106     17.7320E-03     19.6179E-03
            1642             106     17.7320E-03     19.6179E-03
            1625             106     17.7320E-03     19.6179E-03
             477             107     22.4635E-03     27.9280E-03
            1625             107     22.4635E-03     27.9280E-03
            1608             107     22.4635E-03     27.9280E-03
             494             107     22.4635E-03     27.9280E-03
            1608             108     15.0701E-03     19.2546E-03
             460             108     15.0701E-03     19.2546E-03
            1591             108     15.0701E-03     19.2546E-03
             477             108     15.0701E-03     19.2546E-03
             460             109     3.70935E-03     8.51215E-03
            1591             109     3.70935E-03     8.51215E-03
            1574             109     3.70935E-03     8.51215E-03
             443             109     3.70935E-03     8.51215E-03
            1574             110     4.18042E-03     7.96599E-03
             426             110     4.18042E-03     7.96599E-03
             443             110     4.18042E-03     7.96599E-03
            1557             110     4.18042E-03     7.96599E-03
             426             111     8.79124E-03     10.2166E-03
            1540             111     8.79124E-03     10.2166E-03
            1557             111     8.79124E-03     10.2166E-03
             409             111     8.79124E-03     10.2166E-03
             409             112     13.7048E-03     13.8479E-03
             392             112     13.7048E-03     13.8479E-03
            1540             112     13.7048E-03     13.8479E-03
            1523             112     13.7048E-03     13.8479E-03
            1506             113     18.9472E-03     20.1836E-03
             392             113     18.9472E-03     20.1836E-03
             375             113     18.9472E-03     20.1836E-03
            1523             113     18.9472E-03     20.1836E-03
             375             114     22.3133E-03     27.1258E-03
             358             114     22.3133E-03     27.1258E-03
            1506             114     22.3133E-03     27.1258E-03
            1489             114     22.3133E-03     27.1258E-03
            1489             115     12.6106E-03     16.9150E-03
             358             115     12.6106E-03     16.9150E-03
            1472             115     12.6106E-03     16.9150E-03
             341             115     12.6106E-03     16.9150E-03
            1455             116     3.45808E-03     5.41931E-03
            1472             116     3.45808E-03     5.41931E-03
             341             116     3.45808E-03     5.41931E-03
             324             116     3.45808E-03     5.41931E-03
            1438             117     6.71923E-03     7.73809E-03
            1455             117     6.71923E-03     7.73809E-03
             324             117     6.71923E-03     7.73809E-03
             307             117     6.71923E-03     7.73809E-03
            1421             118     10.7238E-03     10.1212E-03
             290             118     10.7238E-03     10.1212E-03
             307             118     10.7238E-03     10.1212E-03
            1438             118     10.7238E-03     10.1212E-03
             290             119     14.6842E-03     14.8973E-03
            1404             119     14.6842E-03     14.8973E-03
             273             119     14.6842E-03     14.8973E-03
            1421             119     14.6842E-03     14.8973E-03
            1387             120     17.0558E-03     20.3523E-03
             256             120     17.0558E-03     20.3523E-03
            1404             120     17.0558E-03     20.3523E-03
             273             120     17.0558E-03     20.3523E-03
            1370             121     10.2154E-03     13.0724E-03
             256             121     10.2154E-03     13.0724E-03
             239             121     10.2154E-03     13.0724E-03
            1387             121     10.2154E-03     13.0724E-03
             222             122     4.26142E-03     5.19286E-03
             239             122     4.26142E-03     5.19286E-03
            1353             122     4.26142E-03     5.19286E-03
            1370             122     4.26142E-03     5.19286E-03
             222             123     7.31729E-03     6.57717E-03
             205             123     7.31729E-03     6.57717E-03
            1353             123     7.31729E-03     6.57717E-03
            1336             123     7.31729E-03     6.57717E-03
             188             124     9.75987E-03     9.05799E-03
            1319             124     9.75987E-03     9.05799E-03
            1336             124     9.75987E-03     9.05799E-03
             205             124     9.75987E-03     9.05799E-03
            1302             125     12.1575E-03     11.1270E-03
             188             125     12.1575E-03     11.1270E-03
            1319             125     12.1575E-03     11.1270E-03
             171             125     12.1575E-03     11.1270E-03
            1302             126     14.6486E-03     14.4483E-03
             154             126     14.6486E-03     14.4483E-03
            1285             126     14.6486E-03     14.4483E-03
             171             126     14.6486E-03     14.4483E-03
             137             127     15.6933E-03     18.4182E-03
             154             127     15.6933E-03     18.4182E-03
            1268             127     15.6933E-03     18.4182E-03
            1285             127     15.6933E-03     18.4182E-03
            1251             128     10.9294E-03     13.7283E-03
            1268             128     10.9294E-03     13.7283E-03
             120             128     10.9294E-03     13.7283E-03
             137             128     10.9294E-03     13.7283E-03
             120             129     7.58558E-03     7.88194E-03
            1251             129     7.58558E-03     7.88194E-03
             103             129     7.58558E-03     7.88194E-03
            1234             129     7.58558E-03     7.88194E-03
             103             130     9.45968E-03     8.24806E-03
              86             130     9.45968E-03     8.24806E-03
            1234             130     9.45968E-03     8.24806E-03
            1217             130     9.45968E-03     8.24806E-03
              69             131     10.5588E-03     8.96967E-03
              86             131     10.5588E-03     8.96967E-03
            1200             131     10.5588E-03     8.96967E-03
            1217             131     10.5588E-03     8.96967E-03
            1200             132     11.6946E-03     10.7182E-03
              52             132     11.6946E-03     10.7182E-03
            1183             132     11.6946E-03     10.7182E-03
              69             132     11.6946E-03     10.7182E-03
              52             133     11.6723E-03     12.9969E-03
              35             133     11.6723E-03     12.9969E-03
            1166             133     11.6723E-03     12.9969E-03
            1183             133     11.6723E-03     12.9969E-03
            1149             134     10.0168E-03     11.3595E-03
            1166             134     10.0168E-03     11.3595E-03
              35             134     10.0168E-03     11.3595E-03
              18             134     10.0168E-03     11.3595E-03
            1132             135     8.97971E-03     8.97262E-03
               1             135     8.97971E-03     8.97262E-03
              18             135     8.97971E-03     8.97262E-03
            1149             135     8.97971E-03     8.97262E-03
             597             136     4.59119E-03     4.44225E-03
             596             136     4.59119E-03     4.44225E-03
            1131             136     4.59119E-03     4.44225E-03
            1132             136     4.59119E-03     4.44225E-03
            1131             137     4.68584E-03     4.39183E-03
             598             137     4.68584E-03     4.39183E-03
            1130             137     4.68584E-03     4.39183E-03
             597             137     4.68584E-03     4.39183E-03
            1130             138     4.77572E-03     4.33856E-03
             599             138     4.77572E-03     4.33856E-03
            1129             138     4.77572E-03     4.33856E-03
             598             138     4.77572E-03     4.33856E-03
             600             139     4.86940E-03     4.28944E-03
            1128             139     4.86940E-03     4.28944E-03
             599             139     4.86940E-03     4.28944E-03
            1129             139     4.86940E-03     4.28944E-03
            1128             140     4.96689E-03     4.24623E-03
             601             140     4.96689E-03     4.24623E-03
             600             140     4.96689E-03     4.24623E-03
            1127             140     4.96689E-03     4.24623E-03
            1126             141     5.06919E-03     4.20933E-03
            1127             141     5.06919E-03     4.20933E-03
             601             141     5.06919E-03     4.20933E-03
             602             141     5.06919E-03     4.20933E-03
            1125             142     5.17516E-03     4.17958E-03
            1126             142     5.17516E-03     4.17958E-03
             603             142     5.17516E-03     4.17958E-03
             602             142     5.17516E-03     4.17958E-03
             603             143     5.28593E-03     4.15619E-03
            1125             143     5.28593E-03     4.15619E-03
             604             143     5.28593E-03     4.15619E-03
            1124             143     5.28593E-03     4.15619E-03
             605             144     5.39950E-03     4.14104E-03
            1123             144     5.39950E-03     4.14104E-03
             604             144     5.39950E-03     4.14104E-03
            1124             144     5.39950E-03     4.14104E-03
            1122             145     5.51698E-03     4.13095E-03
            1123             145     5.51698E-03     4.13095E-03
             606             145     5.51698E-03     4.13095E-03
             605             145     5.51698E-03     4.13095E-03
             607             146     5.64093E-03     4.13315E-03
            1121             146     5.64093E-03     4.13315E-03
            1122             146     5.64093E-03     4.13315E-03
             606             146     5.64093E-03     4.13315E-03
            1120             147     5.75033E-03     4.12721E-03
            1121             147     5.75033E-03     4.12721E-03
             607             147     5.75033E-03     4.12721E-03
             608             147     5.75033E-03     4.12721E-03
            1120             148     5.93261E-03     4.18256E-03
             608             148     5.93261E-03     4.18256E-03
             609             148     5.93261E-03     4.18256E-03
            1119             148     5.93261E-03     4.18256E-03
             610             149     5.85419E-03     4.04009E-03
            1118             149     5.85419E-03     4.04009E-03
            1119             149     5.85419E-03     4.04009E-03
             609             149     5.85419E-03     4.04009E-03
            1117             150     6.71892E-03     4.69991E-03
            1118             150     6.71892E-03     4.69991E-03
             611             150     6.71892E-03     4.69991E-03
             610             150     6.71892E-03     4.69991E-03
             612             151     4.42555E-03     4.20053E-03
            1117             151     4.42555E-03     4.20053E-03
             611             151     4.42555E-03     4.20053E-03
            1116             151     4.42555E-03     4.20053E-03
            1711             152     13.6181E-15     13.8822E-15
            1716             152     13.6181E-15     13.8822E-15
             612             152     13.6181E-15     13.8822E-15
             629             152     13.6181E-15     13.8822E-15
             629             153     11.2396E-15     11.0678E-15
            1721             153     11.2396E-15     11.0678E-15
             646             153     11.2396E-15     11.0678E-15
            1716             153     11.2396E-15     11.0678E-15
            1721             154     10.4973E-15     10.2030E-15
             646             154     10.4973E-15     10.2030E-15
            1726             154     10.4973E-15     10.2030E-15
             663             154     10.4973E-15     10.2030E-15
            1726             155     8.80413E-15     8.82583E-15
             663             155     8.80413E-15     8.82583E-15
            1731             155     8.80413E-15     8.82583E-15
             680             155     8.80413E-15     8.82583E-15
             679             156     7.80679E-15     8.67786E-15
             680             156     7.80679E-15     8.67786E-15
             678             157     8.28259E-15     8.24189E-15
             679             157     8.28259E-15     8.24189E-15
             678             158     10.2339E-15     10.0088E-15
             677             158     10.2339E-15     10.0088E-15
             676             159     13.6183E-15     13.9213E-15
             677             159     13.6183E-15     13.9213E-15
             676             160     21.9360E-15     22.5141E-15
             675             160     21.9360E-15     22.5141E-15
             675             161     17.8362E-15     18.3884E-15
             674             161     17.8362E-15     18.3884E-15
             674             162     13.1369E-15     13.4184E-15
             673             162     13.1369E-15     13.4184E-15
             673             163     9.69490E-15     9.88027E-15
             672             163     9.69490E-15     9.88027E-15
             671             164     13.5625E-15     8.28312E-15
             672             164     13.5625E-15     8.28312E-15
             670             165     20.5019E-15     13.0079E-15
             671             165     20.5019E-15     13.0079E-15
             670             166     13.4121E-15     8.07861E-15
             669             166     13.4121E-15     8.07861E-15
             669             167     10.2334E-15     11.8387E-15
             668             167     10.2334E-15     11.8387E-15
             668             168     11.7223E-15     14.5456E-15
             667             168     11.7223E-15     14.5456E-15
             666             169     14.3173E-15     9.03412E-15
             667             169     14.3173E-15     9.03412E-15
             666             170     22.2120E-15     10.9600E-15
             665             170     22.2120E-15     10.9600E-15
             664             171     16.8025E-15     13.2083E-15
             665             171     16.8025E-15     13.2083E-15
             664             172     6.59163E-15     13.3235E-15
             647             172     6.59163E-15     13.3235E-15
            2455             172     6.59163E-15     13.3235E-15
            2438             172     6.59163E-15     13.3235E-15
             647             173     9.63903E-15     11.8735E-15
            2421             173     9.63903E-15     11.8735E-15
            2438             173     9.63903E-15     11.8735E-15
             630             173     9.63903E-15     11.8735E-15
             630             174     8.70051E-15     8.43420E-15
            2421             174     8.70051E-15     8.43420E-15
            2404             174     8.70051E-15     8.43420E-15
             613             174     8.70051E-15     8.43420E-15
            2387             175     12.3055E-15     11.0202E-15
            2404             175     12.3055E-15     11.0202E-15
             613             175     12.3055E-15     11.0202E-15
             596             175     12.3055E-15     11.0202E-15
            1960             176     21.5616E-03     21.2638E-03
             681             176     21.5616E-03     21.2638E-03
            1959             176     21.5616E-03     21.2638E-03
             682             176     21.5616E-03     21.2638E-03
             682             177     18.2943E-03     18.0026E-03
             683             177     18.2943E-03     18.0026E-03
            1958             177     18.2943E-03     18.0026E-03
            1959             177     18.2943E-03     18.0026E-03
             684             178     14.0409E-03     13.5363E-03
            1958             178     14.0409E-03     13.5363E-03
            1957             178     14.0409E-03     13.5363E-03
             683             178     14.0409E-03     13.5363E-03
            1957             179     6.11986E-03     7.59891E-03
            1956             179     6.11986E-03     7.59891E-03
             684             179     6.11986E-03     7.59891E-03
             685             179     6.11986E-03     7.59891E-03
             690             180     9.25134E-15     9.21283E-15
             685             180     9.25134E-15     9.21283E-15
            2388             180     9.25134E-15     9.21283E-15
            2371             180     9.25134E-15     9.21283E-15
            2405             181     13.9325E-15     14.0513E-15
            2388             181     13.9325E-15     14.0513E-15
             690             181     13.9325E-15     14.0513E-15
             695             181     13.9325E-15     14.0513E-15
             695             182     15.0184E-15     14.8724E-15
            2405             182     15.0184E-15     14.8724E-15
             700             182     15.0184E-15     14.8724E-15
            2422             182     15.0184E-15     14.8724E-15
             700             183     13.6484E-15     12.8514E-15
             705             183     13.6484E-15     12.8514E-15
            2422             183     13.6484E-15     12.8514E-15
            2439             183     13.6484E-15     12.8514E-15
             704             184     17.1419E-15     15.0973E-15
             705             184     17.1419E-15     15.0973E-15
             703             185     12.8736E-15     10.5408E-15
             704             185     12.8736E-15     10.5408E-15
             703             186     9.67660E-15     8.44238E-15
             702             186     9.67660E-15     8.44238E-15
             701             187     14.9831E-15     14.2793E-15
             702             187     14.9831E-15     14.2793E-15
            1730             188     16.8114E-15     17.0785E-15
             696             188     16.8114E-15     17.0785E-15
            1735             188     16.8114E-15     17.0785E-15
             701             188     16.8114E-15     17.0785E-15
            1725             189     12.3684E-15     13.4602E-15
            1730             189     12.3684E-15     13.4602E-15
             696             189     12.3684E-15     13.4602E-15
             691             189     12.3684E-15     13.4602E-15
             686             190     9.83451E-15     10.8993E-15
            1720             190     9.83451E-15     10.8993E-15
            1725             190     9.83451E-15     10.8993E-15
             691             190     9.83451E-15     10.8993E-15
             686             191     14.2424E-15     13.4420E-15
            1720             191     14.2424E-15     13.4420E-15
            1715             191     14.2424E-15     13.4420E-15
             681             191     14.2424E-15     13.4420E-15
            1714             192     21.5616E-03     21.2638E-03
             706             192     21.5616E-03     21.2638E-03
             707             192     21.5616E-03     21.2638E-03
            1715             192     21.5616E-03     21.2638E-03
            1714             193     18.2943E-03     18.0026E-03
            1713             193     18.2943E-03     18.0026E-03
             707             193     18.2943E-03     18.0026E-03
             708             193     18.2943E-03     18.0026E-03
            1712             194     14.0409E-03     13.5363E-03
             708             194     14.0409E-03     13.5363E-03
             709             194     14.0409E-03     13.5363E-03
            1713             194     14.0409E-03     13.5363E-03
             710             195     6.11986E-03     7.59891E-03
            1712             195     6.11986E-03     7.59891E-03
             709             195     6.11986E-03     7.59891E-03
            1711             195     6.11986E-03     7.59891E-03
            1133             196     6.00990E-03     12.5901E-03
             710             196     6.00990E-03     12.5901E-03
            1116             196     6.00990E-03     12.5901E-03
             715             196     6.00990E-03     12.5901E-03
            1150             197     10.5901E-03     14.5062E-03
             715             197     10.5901E-03     14.5062E-03
            1133             197     10.5901E-03     14.5062E-03
             720             197     10.5901E-03     14.5062E-03
             725             198     12.6523E-03     14.0114E-03
             720             198     12.6523E-03     14.0114E-03
            1167             198     12.6523E-03     14.0114E-03
            1150             198     12.6523E-03     14.0114E-03
             725             199     22.0326E-03     21.1907E-03
            1167             199     22.0326E-03     21.1907E-03
             730             199     22.0326E-03     21.1907E-03
            1184             199     22.0326E-03     21.1907E-03
            1184             200     31.6539E-03     32.7418E-03
             735             200     31.6539E-03     32.7418E-03
            1201             200     31.6539E-03     32.7418E-03
             730             200     31.6539E-03     32.7418E-03
            1218             201     43.7189E-03     42.7773E-03
             735             201     43.7189E-03     42.7773E-03
            1201             201     43.7189E-03     42.7773E-03
             740             201     43.7189E-03     42.7773E-03
            1235             202     54.4506E-03     55.1844E-03
             745             202     54.4506E-03     55.1844E-03
             740             202     54.4506E-03     55.1844E-03
            1218             202     54.4506E-03     55.1844E-03
            1252             203     48.8012E-03     52.1565E-03
             745             203     48.8012E-03     52.1565E-03
             750             203     48.8012E-03     52.1565E-03
            1235             203     48.8012E-03     52.1565E-03
            1269             204     47.0652E-03     44.4717E-03
             750             204     47.0652E-03     44.4717E-03
             755             204     47.0652E-03     44.4717E-03
            1252             204     47.0652E-03     44.4717E-03
            1286             205     56.2946E-03     56.6411E-03
             760             205     56.2946E-03     56.6411E-03
            1269             205     56.2946E-03     56.6411E-03
             755             205     56.2946E-03     56.6411E-03
            1303             206     67.1710E-03     66.3936E-03
            1286             206     67.1710E-03     66.3936E-03
             760             206     67.1710E-03     66.3936E-03
             765             206     67.1710E-03     66.3936E-03
            1320             207     75.6078E-03     78.2301E-03
            1303             207     75.6078E-03     78.2301E-03
             765             207     75.6078E-03     78.2301E-03
             770             207     75.6078E-03     78.2301E-03
             770             208     88.8134E-03     87.4412E-03
             775             208     88.8134E-03     87.4412E-03
            1337             208     88.8134E-03     87.4412E-03
            1320             208     88.8134E-03     87.4412E-03
             775             209     99.6047E-03     99.6994E-03
            1354             209     99.6047E-03     99.6994E-03
             780             209     99.6047E-03     99.6994E-03
            1337             209     99.6047E-03     99.6994E-03
            1354             210     91.3460E-03     97.1576E-03
             780             210     91.3460E-03     97.1576E-03
            1371             210     91.3460E-03     97.1576E-03
             785             210     91.3460E-03     97.1576E-03
            1388             211     90.1452E-03     87.8719E-03
            1371             211     90.1452E-03     87.8719E-03
             785             211     90.1452E-03     87.8719E-03
             790             211     90.1452E-03     87.8719E-03
            1405             212     101.348E-03     99.0806E-03
             790             212     101.348E-03     99.0806E-03
            1388             212     101.348E-03     99.0806E-03
             795             212     101.348E-03     99.0806E-03
             800             213     108.744E-03     113.268E-03
            1405             213     108.744E-03     113.268E-03
            1422             213     108.744E-03     113.268E-03
             795             213     108.744E-03     113.268E-03
            1422             214     123.953E-03     121.460E-03
            1439             214     123.953E-03     121.460E-03
             805             214     123.953E-03     121.460E-03
             800             214     123.953E-03     121.460E-03
             805             215     134.883E-03     134.701E-03
             810             215     134.883E-03     134.701E-03
            1439             215     134.883E-03     134.701E-03
            1456             215     134.883E-03     134.701E-03
             810             216     126.413E-03     134.504E-03
             815             216     126.413E-03     134.504E-03
            1456             216     126.413E-03     134.504E-03
            1473             216     126.413E-03     134.504E-03
            1490             217     128.029E-03     123.820E-03
             815             217     128.029E-03     123.820E-03
            1473             217     128.029E-03     123.820E-03
             820             217     128.029E-03     123.820E-03
             820             218     136.618E-03     136.598E-03
            1490             218     136.618E-03     136.598E-03
            1507             218     136.618E-03     136.598E-03
             825             218     136.618E-03     136.598E-03
            1524             219     146.285E-03     146.710E-03
            1507             219     146.285E-03     146.710E-03
             825             219     146.285E-03     146.710E-03
             830             219     146.285E-03     146.710E-03
            1524             220     154.800E-03     158.628E-03
             830             220     154.800E-03     158.628E-03
            1541             220     154.800E-03     158.628E-03
             835             220     154.800E-03     158.628E-03
            1541             221     169.415E-03     167.637E-03
            1558             221     169.415E-03     167.637E-03
             840             221     169.415E-03     167.637E-03
             835             221     169.415E-03     167.637E-03
             840             222     181.093E-03     179.700E-03
             845             222     181.093E-03     179.700E-03
            1558             222     181.093E-03     179.700E-03
            1575             222     181.093E-03     179.700E-03
             845             223     169.387E-03     180.082E-03
            1592             223     169.387E-03     180.082E-03
             850             223     169.387E-03     180.082E-03
            1575             223     169.387E-03     180.082E-03
            1592             224     170.879E-03     167.666E-03
            1609             224     170.879E-03     167.666E-03
             850             224     170.879E-03     167.666E-03
             855             224     170.879E-03     167.666E-03
            1626             225     182.177E-03     178.262E-03
            1609             225     182.177E-03     178.262E-03
             860             225     182.177E-03     178.262E-03
             855             225     182.177E-03     178.262E-03
             865             226     186.766E-03     194.628E-03
            1643             226     186.766E-03     194.628E-03
             860             226     186.766E-03     194.628E-03
            1626             226     186.766E-03     194.628E-03
             865             227     204.831E-03     200.684E-03
            1660             227     204.831E-03     200.684E-03
            1643             227     204.831E-03     200.684E-03
             870             227     204.831E-03     200.684E-03
            1677             228     215.717E-03     214.621E-03
            1660             228     215.717E-03     214.621E-03
             875             228     215.717E-03     214.621E-03
             870             228     215.717E-03     214.621E-03
            1694             229     203.857E-03     215.352E-03
            1677             229     203.857E-03     215.352E-03
             875             229     203.857E-03     215.352E-03
             880             229     203.857E-03     215.352E-03
             880             230     188.569E-03     204.439E-03
            2799             230     188.569E-03     204.439E-03
             879             230     188.569E-03     204.439E-03
            2800             230     188.569E-03     204.439E-03
             879             231     159.561E-03     177.571E-03
            2798             231     159.561E-03     177.571E-03
            2799             231     159.561E-03     177.571E-03
             878             231     159.561E-03     177.571E-03
             878             232     117.958E-03     128.269E-03
            2798             232     117.958E-03     128.269E-03
             877             232     117.958E-03     128.269E-03
            2797             232     117.958E-03     128.269E-03
            2796             233     72.4015E-03     76.7692E-03
            2797             233     72.4015E-03     76.7692E-03
             876             233     72.4015E-03     76.7692E-03
             877             233     72.4015E-03     76.7692E-03
             876             234     47.3783E-03     47.2551E-03
            2125             234     47.3783E-03     47.2551E-03
             871             234     47.3783E-03     47.2551E-03
            2130             234     47.3783E-03     47.2551E-03
             866             235     56.0669E-03     54.3626E-03
            2125             235     56.0669E-03     54.3626E-03
            2120             235     56.0669E-03     54.3626E-03
             871             235     56.0669E-03     54.3626E-03
            2115             236     56.7321E-03     58.7171E-03
             861             236     56.7321E-03     58.7171E-03
             866             236     56.7321E-03     58.7171E-03
            2120             236     56.7321E-03     58.7171E-03
             856             237     55.9778E-03     58.2041E-03
            2110             237     55.9778E-03     58.2041E-03
             861             237     55.9778E-03     58.2041E-03
            2115             237     55.9778E-03     58.2041E-03
             856             238     57.5543E-03     54.3981E-03
             851             238     57.5543E-03     54.3981E-03
            2110             238     57.5543E-03     54.3981E-03
            2105             238     57.5543E-03     54.3981E-03
            2105             239     55.3999E-03     54.6579E-03
            2100             239     55.3999E-03     54.6579E-03
             846             239     55.3999E-03     54.6579E-03
             851             239     55.3999E-03     54.6579E-03
            2100             240     52.2857E-03     53.0536E-03
            2095             240     52.2857E-03     53.0536E-03
             846             240     52.2857E-03     53.0536E-03
             841             240     52.2857E-03     53.0536E-03
             836             241     53.5536E-03     52.2869E-03
            2090             241     53.5536E-03     52.2869E-03
             841             241     53.5536E-03     52.2869E-03
            2095             241     53.5536E-03     52.2869E-03
            2090             242     53.9320E-03     56.0450E-03
            2085             242     53.9320E-03     56.0450E-03
             831             242     53.9320E-03     56.0450E-03
             836             242     53.9320E-03     56.0450E-03
             831             243     52.8686E-03     54.9947E-03
            2080             243     52.8686E-03     54.9947E-03
            2085             243     52.8686E-03     54.9947E-03
             826             243     52.8686E-03     54.9947E-03
            2075             244     54.3975E-03     52.8190E-03
            2080             244     54.3975E-03     52.8190E-03
             821             244     54.3975E-03     52.8190E-03
             826             244     54.3975E-03     52.8190E-03
            2075             245     53.4341E-03     50.8300E-03
             821             245     53.4341E-03     50.8300E-03
            2070             245     53.4341E-03     50.8300E-03
             816             245     53.4341E-03     50.8300E-03
             816             246     51.9528E-03     50.8134E-03
             811             246     51.9528E-03     50.8134E-03
            2070             246     51.9528E-03     50.8134E-03
            2065             246     51.9528E-03     50.8134E-03
             811             247     49.9771E-03     49.9547E-03
            2065             247     49.9771E-03     49.9547E-03
             806             247     49.9771E-03     49.9547E-03
            2060             247     49.9771E-03     49.9547E-03
             806             248     50.3821E-03     49.1805E-03
            2055             248     50.3821E-03     49.1805E-03
            2060             248     50.3821E-03     49.1805E-03
             801             248     50.3821E-03     49.1805E-03
            2055             249     50.5324E-03     51.8049E-03
             801             249     50.5324E-03     51.8049E-03
             796             249     50.5324E-03     51.8049E-03
            2050             249     50.5324E-03     51.8049E-03
            2045             250     50.0928E-03     50.9199E-03
            2050             250     50.0928E-03     50.9199E-03
             796             250     50.0928E-03     50.9199E-03
             791             250     50.0928E-03     50.9199E-03
             786             251     51.0542E-03     48.9892E-03
            2040             251     51.0542E-03     48.9892E-03
             791             251     51.0542E-03     48.9892E-03
            2045             251     51.0542E-03     48.9892E-03
            2035             252     49.9262E-03     49.3836E-03
            2040             252     49.9262E-03     49.3836E-03
             781             252     49.9262E-03     49.3836E-03
             786             252     49.9262E-03     49.3836E-03
            2035             253     48.4551E-03     48.2900E-03
             776             253     48.4551E-03     48.2900E-03
             781             253     48.4551E-03     48.2900E-03
            2030             253     48.4551E-03     48.2900E-03
             776             254     49.0300E-03     48.1056E-03
             771             254     49.0300E-03     48.1056E-03
            2025             254     49.0300E-03     48.1056E-03
            2030             254     49.0300E-03     48.1056E-03
             766             255     48.9652E-03     50.0865E-03
            2020             255     48.9652E-03     50.0865E-03
             771             255     48.9652E-03     50.0865E-03
            2025             255     48.9652E-03     50.0865E-03
             766             256     48.2584E-03     49.0824E-03
             761             256     48.2584E-03     49.0824E-03
            2015             256     48.2584E-03     49.0824E-03
            2020             256     48.2584E-03     49.0824E-03
            2010             257     49.0458E-03     47.9411E-03
            2015             257     49.0458E-03     47.9411E-03
             761             257     49.0458E-03     47.9411E-03
             756             257     49.0458E-03     47.9411E-03
            2010             258     48.7047E-03     47.4125E-03
             756             258     48.7047E-03     47.4125E-03
             751             258     48.7047E-03     47.4125E-03
            2005             258     48.7047E-03     47.4125E-03
             751             259     48.1958E-03     47.3708E-03
             746             259     48.1958E-03     47.3708E-03
            2005             259     48.1958E-03     47.3708E-03
            2000             259     48.1958E-03     47.3708E-03
             741             260     47.2985E-03     46.7166E-03
             746             260     47.2985E-03     46.7166E-03
            2000             260     47.2985E-03     46.7166E-03
            1995             260     47.2985E-03     46.7166E-03
             736             261     47.3703E-03     46.6001E-03
            1990             261     47.3703E-03     46.6001E-03
             741             261     47.3703E-03     46.6001E-03
            1995             261     47.3703E-03     46.6001E-03
             731             262     47.4480E-03     47.6432E-03
            1990             262     47.4480E-03     47.6432E-03
            1985             262     47.4480E-03     47.6432E-03
             736             262     47.4480E-03     47.6432E-03
            1985             263     47.0831E-03     47.1213E-03
             726             263     47.0831E-03     47.1213E-03
            1980             263     47.0831E-03     47.1213E-03
             731             263     47.0831E-03     47.1213E-03
            1975             264     47.5998E-03     46.8079E-03
            1980             264     47.5998E-03     46.8079E-03
             721             264     47.5998E-03     46.8079E-03
             726             264     47.5998E-03     46.8079E-03
             721             265     47.2311E-03     46.6622E-03
            1975             265     47.2311E-03     46.6622E-03
             716             265     47.2311E-03     46.6622E-03
            1970             265     47.2311E-03     46.6622E-03
             711             266     45.4733E-03     45.0086E-03
            1965             266     45.4733E-03     45.0086E-03
            1970             266     45.4733E-03     45.0086E-03
             716             266     45.4733E-03     45.0086E-03
            1960             267     44.6880E-03     44.1313E-03
             706             267     44.6880E-03     44.1313E-03
            1965             267     44.6880E-03     44.1313E-03
             711             267     44.6880E-03     44.1313E-03
            1047             318     215.209E-03     208.137E-03
            1736             318     215.209E-03     208.137E-03
            1741             318     215.209E-03     208.137E-03
            1064             318     215.209E-03     208.137E-03
            1746             319     221.628E-03     224.991E-03
            1081             319     221.628E-03     224.991E-03
            1064             319     221.628E-03     224.991E-03
            1741             319     221.628E-03     224.991E-03
            1098             320     235.743E-03     235.495E-03
            1751             320     235.743E-03     235.495E-03
            1081             320     235.743E-03     235.495E-03
            1746             320     235.743E-03     235.495E-03
            1751             321     249.814E-03     246.398E-03
            1756             321     249.814E-03     246.398E-03
            1098             321     249.814E-03     246.398E-03
            1115             321     249.814E-03     246.398E-03
            1861             328     216.987E-03     223.955E-03
            1114             328     216.987E-03     223.955E-03
            1115             328     216.987E-03     223.955E-03
            1862             328     216.987E-03     223.955E-03
            1861             329     198.721E-03     204.021E-03
            1114             329     198.721E-03     204.021E-03
            1113             329     198.721E-03     204.021E-03
            1860             329     198.721E-03     204.021E-03
            1113             330     184.959E-03     190.597E-03
            1860             330     184.959E-03     190.597E-03
            1112             330     184.959E-03     190.597E-03
            1859             330     184.959E-03     190.597E-03
            1111             331     171.543E-03     177.617E-03
            1112             331     171.543E-03     177.617E-03
            1859             331     171.543E-03     177.617E-03
            1858             331     171.543E-03     177.617E-03
            1110             332     158.514E-03     164.681E-03
            1857             332     158.514E-03     164.681E-03
            1858             332     158.514E-03     164.681E-03
            1111             332     158.514E-03     164.681E-03
            1109             333     145.310E-03     151.584E-03
            1857             333     145.310E-03     151.584E-03
            1110             333     145.310E-03     151.584E-03
            1856             333     145.310E-03     151.584E-03
            1856             334     132.091E-03     138.341E-03
            1108             334     132.091E-03     138.341E-03
            1855             334     132.091E-03     138.341E-03
            1109             334     132.091E-03     138.341E-03
            1107             335     118.733E-03     124.994E-03
            1855             335     118.733E-03     124.994E-03
            1854             335     118.733E-03     124.994E-03
            1108             335     118.733E-03     124.994E-03
            1107             336     105.340E-03     111.584E-03
            1854             336     105.340E-03     111.584E-03
            1106             336     105.340E-03     111.584E-03
            1853             336     105.340E-03     111.584E-03
            1853             337     91.8781E-03     98.1310E-03
            1852             337     91.8781E-03     98.1310E-03
            1105             337     91.8781E-03     98.1310E-03
            1106             337     91.8781E-03     98.1310E-03
            1105             338     78.4061E-03     84.6615E-03
            1852             338     78.4061E-03     84.6615E-03
            1104             338     78.4061E-03     84.6615E-03
            1851             338     78.4061E-03     84.6615E-03
            1851             339     64.8968E-03     71.1935E-03
            1104             339     64.8968E-03     71.1935E-03
            1850             339     64.8968E-03     71.1935E-03
            1103             339     64.8968E-03     71.1935E-03
            1103             340     51.4268E-03     57.7282E-03
            1849             340     51.4268E-03     57.7282E-03
            1850             340     51.4268E-03     57.7282E-03
            1102             340     51.4268E-03     57.7282E-03
            1849             341     38.0572E-03     44.2230E-03
            1102             341     38.0572E-03     44.2230E-03
            1848             341     38.0572E-03     44.2230E-03
            1101             341     38.0572E-03     44.2230E-03
            1101             342     24.9112E-03     30.6506E-03
            1848             342     24.9112E-03     30.6506E-03
            1100             342     24.9112E-03     30.6506E-03
            1847             342     24.9112E-03     30.6506E-03
            1846             343     12.5273E-03     17.4194E-03
            1847             343     12.5273E-03     17.4194E-03
            1099             343     12.5273E-03     17.4194E-03
            1100             343     12.5273E-03     17.4194E-03
            1099             344     5.47178E-03     12.4242E-03
            1828             344     5.47178E-03     12.4242E-03
            1082             344     5.47178E-03     12.4242E-03
            1845             344     5.47178E-03     12.4242E-03
            1082             345     7.43906E-03     11.9906E-03
            1065             345     7.43906E-03     11.9906E-03
            1811             345     7.43906E-03     11.9906E-03
            1828             345     7.43906E-03     11.9906E-03
            1794             346     15.1621E-03     17.9775E-03
            1048             346     15.1621E-03     17.9775E-03
            1065             346     15.1621E-03     17.9775E-03
            1811             346     15.1621E-03     17.9775E-03
            1048             347     21.1915E-03     26.5064E-03
            1777             347     21.1915E-03     26.5064E-03
            1794             347     21.1915E-03     26.5064E-03
            1031             347     21.1915E-03     26.5064E-03
            1777             348     19.3511E-03     22.4297E-03
            1776             348     19.3511E-03     22.4297E-03
            1710             348     19.3511E-03     22.4297E-03
            1709             348     19.3511E-03     22.4297E-03
            1776             349     30.1609E-03     31.9290E-03
            1709             349     30.1609E-03     31.9290E-03
            1708             349     30.1609E-03     31.9290E-03
            1775             349     30.1609E-03     31.9290E-03
            1775             350     41.5299E-03     43.2696E-03
            1774             350     41.5299E-03     43.2696E-03
            1707             350     41.5299E-03     43.2696E-03
            1708             350     41.5299E-03     43.2696E-03
            1773             351     53.4920E-03     55.2451E-03
            1706             351     53.4920E-03     55.2451E-03
            1707             351     53.4920E-03     55.2451E-03
            1774             351     53.4920E-03     55.2451E-03
            1773             352     65.7684E-03     67.4752E-03
            1705             352     65.7684E-03     67.4752E-03
            1772             352     65.7684E-03     67.4752E-03
            1706             352     65.7684E-03     67.4752E-03
            1772             353     78.1919E-03     79.8691E-03
            1705             353     78.1919E-03     79.8691E-03
            1771             353     78.1919E-03     79.8691E-03
            1704             353     78.1919E-03     79.8691E-03
            1771             354     90.6765E-03     92.3358E-03
            1703             354     90.6765E-03     92.3358E-03
            1704             354     90.6765E-03     92.3358E-03
            1770             354     90.6765E-03     92.3358E-03
            1770             355     103.190E-03     104.850E-03
            1702             355     103.190E-03     104.850E-03
            1703             355     103.190E-03     104.850E-03
            1769             355     103.190E-03     104.850E-03
            1702             356     115.673E-03     117.330E-03
            1769             356     115.673E-03     117.330E-03
            1701             356     115.673E-03     117.330E-03
            1768             356     115.673E-03     117.330E-03
            1700             357     128.129E-03     129.790E-03
            1767             357     128.129E-03     129.790E-03
            1768             357     128.129E-03     129.790E-03
            1701             357     128.129E-03     129.790E-03
            1767             358     140.456E-03     142.120E-03
            1700             358     140.456E-03     142.120E-03
            1699             358     140.456E-03     142.120E-03
            1766             358     140.456E-03     142.120E-03
            1699             359     152.729E-03     154.291E-03
            1698             359     152.729E-03     154.291E-03
            1766             359     152.729E-03     154.291E-03
            1765             359     152.729E-03     154.291E-03
            1765             360     164.721E-03     166.192E-03
            1698             360     164.721E-03     166.192E-03
            1697             360     164.721E-03     166.192E-03
            1764             360     164.721E-03     166.192E-03
            1764             361     176.255E-03     177.374E-03
            1696             361     176.255E-03     177.374E-03
            1697             361     176.255E-03     177.374E-03
            1763             361     176.255E-03     177.374E-03
            1762             362     186.870E-03     187.416E-03
            1695             362     186.870E-03     187.416E-03
            1696             362     186.870E-03     187.416E-03
            1763             362     186.870E-03     187.416E-03
            1762             363     195.401E-03     196.495E-03
            1761             363     195.401E-03     196.495E-03
            1695             363     195.401E-03     196.495E-03
            1694             363     195.401E-03     196.495E-03
            1735             364     20.7544E-15     19.4588E-15
            1734             364     20.7544E-15     19.4588E-15
            1734             365     12.2538E-15     12.2269E-15
            1733             365     12.2538E-15     12.2269E-15
            1733             366     8.67108E-15     9.38473E-15
            1732             366     8.67108E-15     9.38473E-15
            1731             367     8.87168E-15     8.21702E-15
            1732             367     8.87168E-15     8.21702E-15
            2127             368     188.569E-03     204.439E-03
            2126             368     188.569E-03     204.439E-03
            1737             368     188.569E-03     204.439E-03
            1736             368     188.569E-03     204.439E-03
            1737             369     159.561E-03     177.571E-03
            2128             369     159.561E-03     177.571E-03
            1738             369     159.561E-03     177.571E-03
            2127             369     159.561E-03     177.571E-03
            2128             370     117.958E-03     128.269E-03
            2129             370     117.958E-03     128.269E-03
            1738             370     117.958E-03     128.269E-03
            1739             370     117.958E-03     128.269E-03
            2130             371     72.4015E-03     76.7692E-03
            1739             371     72.4015E-03     76.7692E-03
            2129             371     72.4015E-03     76.7692E-03
            1740             371     72.4015E-03     76.7692E-03
            2796             372     59.4629E-03     58.8576E-03
            1740             372     59.4629E-03     58.8576E-03
            2801             372     59.4629E-03     58.8576E-03
            1745             372     59.4629E-03     58.8576E-03
            1745             373     59.0531E-03     60.0515E-03
            2801             373     59.0531E-03     60.0515E-03
            2806             373     59.0531E-03     60.0515E-03
            1750             373     59.0531E-03     60.0515E-03
            2811             374     60.1697E-03     62.4234E-03
            1755             374     60.1697E-03     62.4234E-03
            2806             374     60.1697E-03     62.4234E-03
            1750             374     60.1697E-03     62.4234E-03
            1755             375     58.8366E-03     56.7520E-03
            1760             375     58.8366E-03     56.7520E-03
            2811             375     58.8366E-03     56.7520E-03
            2816             375     58.8366E-03     56.7520E-03
            2255             376     91.6939E-03     95.5275E-03
            2254             376     91.6939E-03     95.5275E-03
            1759             376     91.6939E-03     95.5275E-03
            1760             376     91.6939E-03     95.5275E-03
            2253             377     138.770E-03     151.778E-03
            2254             377     138.770E-03     151.778E-03
            1758             377     138.770E-03     151.778E-03
            1759             377     138.770E-03     151.778E-03
            1758             378     181.148E-03     205.455E-03
            2253             378     181.148E-03     205.455E-03
            2252             378     181.148E-03     205.455E-03
            1757             378     181.148E-03     205.455E-03
            2251             379     216.796E-03     241.304E-03
            1756             379     216.796E-03     241.304E-03
            1757             379     216.796E-03     241.304E-03
            2252             379     216.796E-03     241.304E-03
            1845             380     12.5273E-03     17.4194E-03
            1844             380     12.5273E-03     17.4194E-03
            2726             380     12.5273E-03     17.4194E-03
            2727             380     12.5273E-03     17.4194E-03
            1843             381     24.9112E-03     30.6506E-03
            2726             381     24.9112E-03     30.6506E-03
            1844             381     24.9112E-03     30.6506E-03
            2725             381     24.9112E-03     30.6506E-03
            2725             382     38.0572E-03     44.2230E-03
            1843             382     38.0572E-03     44.2230E-03
            2724             382     38.0572E-03     44.2230E-03
            1842             382     38.0572E-03     44.2230E-03
            2724             383     51.4268E-03     57.7282E-03
            2723             383     51.4268E-03     57.7282E-03
            1841             383     51.4268E-03     57.7282E-03
            1842             383     51.4268E-03     57.7282E-03
            2723             384     64.8968E-03     71.1935E-03
            1841             384     64.8968E-03     71.1935E-03
            1840             384     64.8968E-03     71.1935E-03
            2722             384     64.8968E-03     71.1935E-03
            2722             385     78.4061E-03     84.6615E-03
            2721             385     78.4061E-03     84.6615E-03
            1839             385     78.4061E-03     84.6615E-03
            1840             385     78.4061E-03     84.6615E-03
            2720             386     91.8781E-03     98.1310E-03
            1838             386     91.8781E-03     98.1310E-03
            1839             386     91.8781E-03     98.1310E-03
            2721             386     91.8781E-03     98.1310E-03
            1838             387     105.340E-03     111.584E-03
            2720             387     105.340E-03     111.584E-03
            1837             387     105.340E-03     111.584E-03
            2719             387     105.340E-03     111.584E-03
            2718             388     118.733E-03     124.994E-03
            2719             388     118.733E-03     124.994E-03
            1836             388     118.733E-03     124.994E-03
            1837             388     118.733E-03     124.994E-03
            2717             389     132.091E-03     138.341E-03
            1836             389     132.091E-03     138.341E-03
            1835             389     132.091E-03     138.341E-03
            2718             389     132.091E-03     138.341E-03
            1834             390     145.310E-03     151.584E-03
            1835             390     145.310E-03     151.584E-03
            2716             390     145.310E-03     151.584E-03
            2717             390     145.310E-03     151.584E-03
            2715             391     158.514E-03     164.681E-03
            1834             391     158.514E-03     164.681E-03
            1833             391     158.514E-03     164.681E-03
            2716             391     158.514E-03     164.681E-03
            1833             392     171.543E-03     177.617E-03
            1832             392     171.543E-03     177.617E-03
            2715             392     171.543E-03     177.617E-03
            2714             392     171.543E-03     177.617E-03
            2714             393     184.959E-03     190.597E-03
            2713             393     184.959E-03     190.597E-03
            1831             393     184.959E-03     190.597E-03
            1832             393     184.959E-03     190.597E-03
            1831             394     198.721E-03     204.021E-03
            2712             394     198.721E-03     204.021E-03
            1830             394     198.721E-03     204.021E-03
            2713             394     198.721E-03     204.021E-03
            2711             395     216.987E-03     223.955E-03
            1830             395     216.987E-03     223.955E-03
            1829             395     216.987E-03     223.955E-03
            2712             395     216.987E-03     223.955E-03
            2815             396     249.814E-03     246.398E-03
            2820             396     249.814E-03     246.398E-03
            1812             396     249.814E-03     246.398E-03
            1829             396     249.814E-03     246.398E-03
            2815             397     235.743E-03     235.495E-03
            1812             397     235.743E-03     235.495E-03
            1795             397     235.743E-03     235.495E-03
            2810             397     235.743E-03     235.495E-03
            2805             398     221.628E-03     224.991E-03
            1778             398     221.628E-03     224.991E-03
            2810             398     221.628E-03     224.991E-03
            1795             398     221.628E-03     224.991E-03
            2805             399     215.209E-03     208.137E-03
            1778             399     215.209E-03     208.137E-03
            2800             399     215.209E-03     208.137E-03
            1761             399     215.209E-03     208.137E-03
            1862             400     225.896E-03     243.569E-03
            1879             400     225.896E-03     243.569E-03
            2251             400     225.896E-03     243.569E-03
            2256             400     225.896E-03     243.569E-03
            1896             401     229.389E-03     232.650E-03
            1879             401     229.389E-03     232.650E-03
            2261             401     229.389E-03     232.650E-03
            2256             401     229.389E-03     232.650E-03
            2261             402     200.428E-03     192.286E-03
            2266             402     200.428E-03     192.286E-03
            1896             402     200.428E-03     192.286E-03
            1913             402     200.428E-03     192.286E-03
            1930             403     159.464E-03     159.519E-03
            2266             403     159.464E-03     159.519E-03
            2271             403     159.464E-03     159.519E-03
            1913             403     159.464E-03     159.519E-03
            3071             404     147.762E-03     153.895E-03
            1929             404     147.762E-03     153.895E-03
            3072             404     147.762E-03     153.895E-03
            1930             404     147.762E-03     153.895E-03
            3070             405     144.319E-03     150.558E-03
            1928             405     144.319E-03     150.558E-03
            1929             405     144.319E-03     150.558E-03
            3071             405     144.319E-03     150.558E-03
            1928             406     138.722E-03     145.002E-03
            1927             406     138.722E-03     145.002E-03
            3069             406     138.722E-03     145.002E-03
            3070             406     138.722E-03     145.002E-03
            1926             407     129.525E-03     135.862E-03
            3069             407     129.525E-03     135.862E-03
            1927             407     129.525E-03     135.862E-03
            3068             407     129.525E-03     135.862E-03
            1926             408     120.095E-03     126.424E-03
            3067             408     120.095E-03     126.424E-03
            3068             408     120.095E-03     126.424E-03
            1925             408     120.095E-03     126.424E-03
            1925             409     110.587E-03     117.024E-03
            3067             409     110.587E-03     117.024E-03
            3066             409     110.587E-03     117.024E-03
            1924             409     110.587E-03     117.024E-03
            1923             410     101.053E-03     107.345E-03
            3066             410     101.053E-03     107.345E-03
            3065             410     101.053E-03     107.345E-03
            1924             410     101.053E-03     107.345E-03
            1922             411     91.4904E-03     97.8403E-03
            3064             411     91.4904E-03     97.8403E-03
            1923             411     91.4904E-03     97.8403E-03
            3065             411     91.4904E-03     97.8403E-03
            1922             412     82.0012E-03     88.2444E-03
            1921             412     82.0012E-03     88.2444E-03
            3064             412     82.0012E-03     88.2444E-03
            3063             412     82.0012E-03     88.2444E-03
            3062             413     72.5949E-03     78.8265E-03
            1920             413     72.5949E-03     78.8265E-03
            3063             413     72.5949E-03     78.8265E-03
            1921             413     72.5949E-03     78.8265E-03
            1919             414     63.3890E-03     69.5027E-03
            1920             414     63.3890E-03     69.5027E-03
            3061             414     63.3890E-03     69.5027E-03
            3062             414     63.3890E-03     69.5027E-03
            3060             415     54.4697E-03     60.4738E-03
            1919             415     54.4697E-03     60.4738E-03
            3061             415     54.4697E-03     60.4738E-03
            1918             415     54.4697E-03     60.4738E-03
            1917             416     46.0516E-03     51.8265E-03
            1918             416     46.0516E-03     51.8265E-03
            3059             416     46.0516E-03     51.8265E-03
            3060             416     46.0516E-03     51.8265E-03
            3059             417     38.5646E-03     43.7852E-03
            1916             417     38.5646E-03     43.7852E-03
            3058             417     38.5646E-03     43.7852E-03
            1917             417     38.5646E-03     43.7852E-03
            1916             418     32.6114E-03     37.0365E-03
            3057             418     32.6114E-03     37.0365E-03
            1915             418     32.6114E-03     37.0365E-03
            3058             418     32.6114E-03     37.0365E-03
            1914             419     28.4949E-03     32.6562E-03
            3056             419     28.4949E-03     32.6562E-03
            1915             419     28.4949E-03     32.6562E-03
            3057             419     28.4949E-03     32.6562E-03
            2778             420     31.3796E-03     34.1070E-03
            2795             420     31.3796E-03     34.1070E-03
            1914             420     31.3796E-03     34.1070E-03
            1897             420     31.3796E-03     34.1070E-03
            1880             421     27.4778E-03     24.4224E-03
            2778             421     27.4778E-03     24.4224E-03
            1897             421     27.4778E-03     24.4224E-03
            2761             421     27.4778E-03     24.4224E-03
            1880             422     18.5225E-03     18.3436E-03
            2744             422     18.5225E-03     18.3436E-03
            2761             422     18.5225E-03     18.3436E-03
            1863             422     18.5225E-03     18.3436E-03
            1846             423     9.16157E-03     14.3136E-03
            2744             423     9.16157E-03     14.3136E-03
            1863             423     9.16157E-03     14.3136E-03
            2727             423     9.16157E-03     14.3136E-03
            2817             424     91.6939E-03     95.5275E-03
            1931             424     91.6939E-03     95.5275E-03
            1932             424     91.6939E-03     95.5275E-03
            2816             424     91.6939E-03     95.5275E-03
            1932             425     138.770E-03     151.778E-03
            2817             425     138.770E-03     151.778E-03
            1933             425     138.770E-03     151.778E-03
            2818             425     138.770E-03     151.778E-03
            2819             426     181.148E-03     205.455E-03
            1933             426     181.148E-03     205.455E-03
            2818             426     181.148E-03     205.455E-03
            1934             426     181.148E-03     205.455E-03
            2819             427     216.796E-03     241.304E-03
            2820             427     216.796E-03     241.304E-03
            1935             427     216.796E-03     241.304E-03
            1934             427     216.796E-03     241.304E-03
            2711             428     225.896E-03     243.569E-03
            2728             428     225.896E-03     243.569E-03
            1935             428     225.896E-03     243.569E-03
            1940             428     225.896E-03     243.569E-03
            1945             429     229.389E-03     232.650E-03
            1940             429     229.389E-03     232.650E-03
            2745             429     229.389E-03     232.650E-03
            2728             429     229.389E-03     232.650E-03
            2762             430     200.428E-03     192.286E-03
            1945             430     200.428E-03     192.286E-03
            1950             430     200.428E-03     192.286E-03
            2745             430     200.428E-03     192.286E-03
            1955             431     159.464E-03     159.519E-03
            2779             431     159.464E-03     159.519E-03
            1950             431     159.464E-03     159.519E-03
            2762             431     159.464E-03     159.519E-03
            1955             432     146.027E-03     156.180E-03
            1954             432     146.027E-03     156.180E-03
            2279             432     146.027E-03     156.180E-03
            2280             432     146.027E-03     156.180E-03
            1953             433     137.655E-03     148.204E-03
            2279             433     137.655E-03     148.204E-03
            1954             433     137.655E-03     148.204E-03
            2278             433     137.655E-03     148.204E-03
            2278             434     127.648E-03     133.372E-03
            2277             434     127.648E-03     133.372E-03
            1953             434     127.648E-03     133.372E-03
            1952             434     127.648E-03     133.372E-03
            1951             435     121.268E-03     122.369E-03
            2277             435     121.268E-03     122.369E-03
            1952             435     121.268E-03     122.369E-03
            2276             435     121.268E-03     122.369E-03
            1951             436     125.321E-03     127.780E-03
            1946             436     125.321E-03     127.780E-03
            2275             436     125.321E-03     127.780E-03
            2270             436     125.321E-03     127.780E-03
            2265             437     127.932E-03     127.233E-03
            1941             437     127.932E-03     127.233E-03
            1946             437     127.932E-03     127.233E-03
            2270             437     127.932E-03     127.233E-03
            1941             438     127.856E-03     123.561E-03
            1936             438     127.856E-03     123.561E-03
            2260             438     127.856E-03     123.561E-03
            2265             438     127.856E-03     123.561E-03
            1931             439     103.504E-03     101.924E-03
            2255             439     103.504E-03     101.924E-03
            1936             439     103.504E-03     101.924E-03
            2260             439     103.504E-03     101.924E-03
            2275             448     121.268E-03     122.369E-03
            2274             448     121.268E-03     122.369E-03
            2840             448     121.268E-03     122.369E-03
            2839             448     121.268E-03     122.369E-03
            2838             449     127.648E-03     133.372E-03
            2839             449     127.648E-03     133.372E-03
            2273             449     127.648E-03     133.372E-03
            2274             449     127.648E-03     133.372E-03
            2837             450     137.655E-03     148.204E-03
            2838             450     137.655E-03     148.204E-03
            2272             450     137.655E-03     148.204E-03
            2273             450     137.655E-03     148.204E-03
            2271             451     146.027E-03     156.180E-03
            2272             451     146.027E-03     156.180E-03
            2836             451     146.027E-03     156.180E-03
            2837             451     146.027E-03     156.180E-03
            2456             452     139.171E-03     141.396E-03
            2280             452     139.171E-03     141.396E-03
            2285             452     139.171E-03     141.396E-03
            2473             452     139.171E-03     141.396E-03
            2473             453     139.450E-03     143.563E-03
            2490             453     139.450E-03     143.563E-03
            2290             453     139.450E-03     143.563E-03
            2285             453     139.450E-03     143.563E-03
            2290             454     150.306E-03     152.636E-03
            2295             454     150.306E-03     152.636E-03
            2507             454     150.306E-03     152.636E-03
            2490             454     150.306E-03     152.636E-03
            2295             455     123.160E-03     119.932E-03
            2300             455     123.160E-03     119.932E-03
            2507             455     123.160E-03     119.932E-03
            2524             455     123.160E-03     119.932E-03
            2300             456     90.7247E-03     95.7083E-03
            2524             456     90.7247E-03     95.7083E-03
            2541             456     90.7247E-03     95.7083E-03
            2305             456     90.7247E-03     95.7083E-03
            2310             457     69.3885E-03     65.4360E-03
            2541             457     69.3885E-03     65.4360E-03
            2558             457     69.3885E-03     65.4360E-03
            2305             457     69.3885E-03     65.4360E-03
            2558             458     42.4467E-03     42.4899E-03
            2575             458     42.4467E-03     42.4899E-03
            2315             458     42.4467E-03     42.4899E-03
            2310             458     42.4467E-03     42.4899E-03
            2320             459     29.5853E-03     35.5553E-03
            2575             459     29.5853E-03     35.5553E-03
            2592             459     29.5853E-03     35.5553E-03
            2315             459     29.5853E-03     35.5553E-03
            2609             460     23.6229E-03     28.2879E-03
            2320             460     23.6229E-03     28.2879E-03
            2325             460     23.6229E-03     28.2879E-03
            2592             460     23.6229E-03     28.2879E-03
            2325             461     17.2658E-03     17.4111E-03
            2324             461     17.2658E-03     17.4111E-03
            3230             461     17.2658E-03     17.4111E-03
            3229             461     17.2658E-03     17.4111E-03
            2324             462     25.6218E-03     25.7618E-03
            3229             462     25.6218E-03     25.7618E-03
            2323             462     25.6218E-03     25.7618E-03
            3228             462     25.6218E-03     25.7618E-03
            2323             463     32.3193E-03     32.4559E-03
            3228             463     32.3193E-03     32.4559E-03
            3227             463     32.3193E-03     32.4559E-03
            2322             463     32.3193E-03     32.4559E-03
            3226             464     36.6324E-03     36.7670E-03
            3227             464     36.6324E-03     36.7670E-03
            2321             464     36.6324E-03     36.7670E-03
            2322             464     36.6324E-03     36.7670E-03
            2885             465     101.067E-03     100.283E-03
            2316             465     101.067E-03     100.283E-03
            2321             465     101.067E-03     100.283E-03
            2880             465     101.067E-03     100.283E-03
            2880             466     126.584E-03     124.533E-03
            2875             466     126.584E-03     124.533E-03
            2316             466     126.584E-03     124.533E-03
            2311             466     126.584E-03     124.533E-03
            2306             467     126.979E-03     125.566E-03
            2875             467     126.979E-03     125.566E-03
            2870             467     126.979E-03     125.566E-03
            2311             467     126.979E-03     125.566E-03
            2865             468     126.958E-03     125.243E-03
            2870             468     126.958E-03     125.243E-03
            2306             468     126.958E-03     125.243E-03
            2301             468     126.958E-03     125.243E-03
            2860             469     126.117E-03     126.481E-03
            2301             469     126.117E-03     126.481E-03
            2296             469     126.117E-03     126.481E-03
            2865             469     126.117E-03     126.481E-03
            2855             470     127.271E-03     128.459E-03
            2296             470     127.271E-03     128.459E-03
            2860             470     127.271E-03     128.459E-03
            2291             470     127.271E-03     128.459E-03
            2291             471     127.500E-03     125.348E-03
            2850             471     127.500E-03     125.348E-03
            2286             471     127.500E-03     125.348E-03
            2855             471     127.500E-03     125.348E-03
            2845             472     129.454E-03     127.118E-03
            2286             472     129.454E-03     127.118E-03
            2850             472     129.454E-03     127.118E-03
            2281             472     129.454E-03     127.118E-03
            2276             473     121.451E-03     120.024E-03
            2845             473     121.451E-03     120.024E-03
            2281             473     121.451E-03     120.024E-03
            2840             473     121.451E-03     120.024E-03
            3089             476     139.171E-03     141.396E-03
            3072             476     139.171E-03     141.396E-03
            2841             476     139.171E-03     141.396E-03
            2836             476     139.171E-03     141.396E-03
            2841             477     139.450E-03     143.563E-03
            2846             477     139.450E-03     143.563E-03
            3089             477     139.450E-03     143.563E-03
            3106             477     139.450E-03     143.563E-03
            3123             478     150.306E-03     152.636E-03
            2851             478     150.306E-03     152.636E-03
            3106             478     150.306E-03     152.636E-03
            2846             478     150.306E-03     152.636E-03
            3123             479     123.160E-03     119.932E-03
            2851             479     123.160E-03     119.932E-03
            3140             479     123.160E-03     119.932E-03
            2856             479     123.160E-03     119.932E-03
            3157             480     90.7247E-03     95.7083E-03
            3140             480     90.7247E-03     95.7083E-03
            2861             480     90.7247E-03     95.7083E-03
            2856             480     90.7247E-03     95.7083E-03
            3174             481     69.3885E-03     65.4360E-03
            2861             481     69.3885E-03     65.4360E-03
            2866             481     69.3885E-03     65.4360E-03
            3157             481     69.3885E-03     65.4360E-03
            2871             482     42.4467E-03     42.4899E-03
            3174             482     42.4467E-03     42.4899E-03
            2866             482     42.4467E-03     42.4899E-03
            3191             482     42.4467E-03     42.4899E-03
            3208             483     29.5853E-03     35.5553E-03
            3191             483     29.5853E-03     35.5553E-03
            2871             483     29.5853E-03     35.5553E-03
            2876             483     29.5853E-03     35.5553E-03
            2881             484     23.6229E-03     28.2879E-03
            3225             484     23.6229E-03     28.2879E-03
            3208             484     23.6229E-03     28.2879E-03
            2876             484     23.6229E-03     28.2879E-03
            2455             496     10.2670E-15     8.40441E-15
            2454             496     10.2670E-15     8.40441E-15
            2453             497     12.1770E-15     5.77968E-15
            2454             497     12.1770E-15     5.77968E-15
            2452             498     12.4386E-15     12.3943E-15
            2453             498     12.4386E-15     12.3943E-15
            2451             499     20.8353E-15     26.9258E-15
            2452             499     20.8353E-15     26.9258E-15
            2451             500     21.2284E-15     24.9806E-15
            2450             500     21.2284E-15     24.9806E-15
            2449             501     17.0363E-15     18.5438E-15
            2450             501     17.0363E-15     18.5438E-15
            2448             502     10.8228E-15     16.5566E-15
            2449             502     10.8228E-15     16.5566E-15
            2447             503     7.37595E-15     13.5122E-15
            2448             503     7.37595E-15     13.5122E-15
            2447             504     10.6404E-15     13.6659E-15
            2446             504     10.6404E-15     13.6659E-15
            2446             505     11.2162E-15     14.5478E-15
            2445             505     11.2162E-15     14.5478E-15
            2445             506     7.22726E-15     11.1188E-15
            2444             506     7.22726E-15     11.1188E-15
            2443             507     8.73009E-15     9.56199E-15
            2444             507     8.73009E-15     9.56199E-15
            2443             508     11.1106E-15     10.4044E-15
            2442             508     11.1106E-15     10.4044E-15
            2441             509     11.2293E-15     9.99505E-15
            2442             509     11.2293E-15     9.99505E-15
            2441             510     15.8850E-15     15.3510E-15
            2440             510     15.8850E-15     15.3510E-15
            2440             511     17.7989E-15     17.7547E-15
            2439             511     17.7989E-15     17.7547E-15
            2779             512     147.762E-03     153.895E-03
            2457             512     147.762E-03     153.895E-03
            2456             512     147.762E-03     153.895E-03
            2780             512     147.762E-03     153.895E-03
            2458             513     144.319E-03     150.558E-03
            2457             513     144.319E-03     150.558E-03
            2780             513     144.319E-03     150.558E-03
            2781             513     144.319E-03     150.558E-03
            2781             514     138.722E-03     145.002E-03
            2458             514     138.722E-03     145.002E-03
            2459             514     138.722E-03     145.002E-03
            2782             514     138.722E-03     145.002E-03
            2782             515     129.525E-03     135.862E-03
            2783             515     129.525E-03     135.862E-03
            2460             515     129.525E-03     135.862E-03
            2459             515     129.525E-03     135.862E-03
            2784             516     120.095E-03     126.424E-03
            2783             516     120.095E-03     126.424E-03
            2460             516     120.095E-03     126.424E-03
            2461             516     120.095E-03     126.424E-03
            2461             517     110.587E-03     117.024E-03
            2785             517     110.587E-03     117.024E-03
            2784             517     110.587E-03     117.024E-03
            2462             517     110.587E-03     117.024E-03
            2786             518     101.053E-03     107.345E-03
            2463             518     101.053E-03     107.345E-03
            2785             518     101.053E-03     107.345E-03
            2462             518     101.053E-03     107.345E-03
            2463             519     91.4904E-03     97.8403E-03
            2464             519     91.4904E-03     97.8403E-03
            2786             519     91.4904E-03     97.8403E-03
            2787             519     91.4904E-03     97.8403E-03
            2464             520     82.0012E-03     88.2444E-03
            2465             520     82.0012E-03     88.2444E-03
            2788             520     82.0012E-03     88.2444E-03
            2787             520     82.0012E-03     88.2444E-03
            2465             521     72.5949E-03     78.8265E-03
            2789             521     72.5949E-03     78.8265E-03
            2788             521     72.5949E-03     78.8265E-03
            2466             521     72.5949E-03     78.8265E-03
            2790             522     63.3890E-03     69.5027E-03
            2789             522     63.3890E-03     69.5027E-03
            2466             522     63.3890E-03     69.5027E-03
            2467             522     63.3890E-03     69.5027E-03
            2468             523     54.4697E-03     60.4738E-03
            2791             523     54.4697E-03     60.4738E-03
            2790             523     54.4697E-03     60.4738E-03
            2467             523     54.4697E-03     60.4738E-03
            2792             524     46.0516E-03     51.8265E-03
            2468             524     46.0516E-03     51.8265E-03
            2791             524     46.0516E-03     51.8265E-03
            2469             524     46.0516E-03     51.8265E-03
            2793             525     38.5646E-03     43.7852E-03
            2470             525     38.5646E-03     43.7852E-03
            2469             525     38.5646E-03     43.7852E-03
            2792             525     38.5646E-03     43.7852E-03
            2794             526     32.6114E-03     37.0365E-03
            2471             526     32.6114E-03     37.0365E-03
            2470             526     32.6114E-03     37.0365E-03
            2793             526     32.6114E-03     37.0365E-03
            2472             527     28.4949E-03     32.6562E-03
            2471             527     28.4949E-03     32.6562E-03
            2795             527     28.4949E-03     32.6562E-03
            2794             527     28.4949E-03     32.6562E-03
            2472             528     24.1470E-03     24.6395E-03
            2489             528     24.1470E-03     24.6395E-03
            3073             528     24.1470E-03     24.6395E-03
            3056             528     24.1470E-03     24.6395E-03
            3073             529     21.8626E-03     22.7394E-03
            2489             529     21.8626E-03     22.7394E-03
            3090             529     21.8626E-03     22.7394E-03
            2506             529     21.8626E-03     22.7394E-03
            2523             530     20.3254E-03     22.2350E-03
            2506             530     20.3254E-03     22.2350E-03
            3090             530     20.3254E-03     22.2350E-03
            3107             530     20.3254E-03     22.2350E-03
            2540             531     25.3281E-03     22.0987E-03
            3124             531     25.3281E-03     22.0987E-03
            3107             531     25.3281E-03     22.0987E-03
            2523             531     25.3281E-03     22.0987E-03
            2540             532     27.8587E-03     24.5520E-03
            3124             532     27.8587E-03     24.5520E-03
            3141             532     27.8587E-03     24.5520E-03
            2557             532     27.8587E-03     24.5520E-03
            3141             533     30.3990E-03     26.8419E-03
            2557             533     30.3990E-03     26.8419E-03
            2574             533     30.3990E-03     26.8419E-03
            3158             533     30.3990E-03     26.8419E-03
            2591             534     33.0747E-03     30.8959E-03
            3175             534     33.0747E-03     30.8959E-03
            3158             534     33.0747E-03     30.8959E-03
            2574             534     33.0747E-03     30.8959E-03
            3192             535     32.4928E-03     37.0394E-03
            3175             535     32.4928E-03     37.0394E-03
            2591             535     32.4928E-03     37.0394E-03
            2608             535     32.4928E-03     37.0394E-03
            3192             536     17.0111E-03     20.8215E-03
            2625             536     17.0111E-03     20.8215E-03
            3209             536     17.0111E-03     20.8215E-03
            2608             536     17.0111E-03     20.8215E-03
            2987             537     1.48763E-03     1.62985E-03
            2625             537     1.48763E-03     1.62985E-03
            2624             537     1.48763E-03     1.62985E-03
            2986             537     1.48763E-03     1.62985E-03
            2624             538     1.53577E-03     1.68354E-03
            2623             538     1.53577E-03     1.68354E-03
            2985             538     1.53577E-03     1.68354E-03
            2986             538     1.53577E-03     1.68354E-03
            2622             539     1.61621E-03     1.76644E-03
            2623             539     1.61621E-03     1.76644E-03
            2984             539     1.61621E-03     1.76644E-03
            2985             539     1.61621E-03     1.76644E-03
            2984             540     1.72450E-03     1.87472E-03
            2621             540     1.72450E-03     1.87472E-03
            2983             540     1.72450E-03     1.87472E-03
            2622             540     1.72450E-03     1.87472E-03
            2982             541     1.85581E-03     2.00430E-03
            2621             541     1.85581E-03     2.00430E-03
            2620             541     1.85581E-03     2.00430E-03
            2983             541     1.85581E-03     2.00430E-03
            2619             542     2.00567E-03     2.15135E-03
            2981             542     2.00567E-03     2.15135E-03
            2620             542     2.00567E-03     2.15135E-03
            2982             542     2.00567E-03     2.15135E-03
            2618             543     2.17023E-03     2.31256E-03
            2980             543     2.17023E-03     2.31256E-03
            2981             543     2.17023E-03     2.31256E-03
            2619             543     2.17023E-03     2.31256E-03
            2617             544     2.34641E-03     2.48517E-03
            2618             544     2.34641E-03     2.48517E-03
            2979             544     2.34641E-03     2.48517E-03
            2980             544     2.34641E-03     2.48517E-03
            2617             545     2.53178E-03     2.66697E-03
            2616             545     2.53178E-03     2.66697E-03
            2979             545     2.53178E-03     2.66697E-03
            2978             545     2.53178E-03     2.66697E-03
            2616             546     2.72446E-03     2.85620E-03
            2977             546     2.72446E-03     2.85620E-03
            2978             546     2.72446E-03     2.85620E-03
            2615             546     2.72446E-03     2.85620E-03
            2615             547     2.92300E-03     3.05148E-03
            2977             547     2.92300E-03     3.05148E-03
            2614             547     2.92300E-03     3.05148E-03
            2976             547     2.92300E-03     3.05148E-03
            2613             548     3.12628E-03     3.25171E-03
            2976             548     3.12628E-03     3.25171E-03
            2614             548     3.12628E-03     3.25171E-03
            2975             548     3.12628E-03     3.25171E-03
            2974             549     3.33344E-03     3.45603E-03
            2975             549     3.33344E-03     3.45603E-03
            2612             549     3.33344E-03     3.45603E-03
            2613             549     3.33344E-03     3.45603E-03
            2612             550     3.54379E-03     3.66376E-03
            2611             550     3.54379E-03     3.66376E-03
            2974             550     3.54379E-03     3.66376E-03
            2973             550     3.54379E-03     3.66376E-03
            2972             551     3.75679E-03     3.87434E-03
            2610             551     3.75679E-03     3.87434E-03
            2611             551     3.75679E-03     3.87434E-03
            2973             551     3.75679E-03     3.87434E-03
            2610             552     3.97201E-03     4.08733E-03
            2971             552     3.97201E-03     4.08733E-03
            2972             552     3.97201E-03     4.08733E-03
            2609             552     3.97201E-03     4.08733E-03
            2626             553     1.48763E-03     1.62985E-03
            2627             553     1.48763E-03     1.62985E-03
            3209             553     1.48763E-03     1.62985E-03
            3210             553     1.48763E-03     1.62985E-03
            2628             554     1.53577E-03     1.68354E-03
            2627             554     1.53577E-03     1.68354E-03
            3211             554     1.53577E-03     1.68354E-03
            3210             554     1.53577E-03     1.68354E-03
            2628             555     1.61621E-03     1.76644E-03
            3211             555     1.61621E-03     1.76644E-03
            2629             555     1.61621E-03     1.76644E-03
            3212             555     1.61621E-03     1.76644E-03
            2629             556     1.72450E-03     1.87472E-03
            2630             556     1.72450E-03     1.87472E-03
            3213             556     1.72450E-03     1.87472E-03
            3212             556     1.72450E-03     1.87472E-03
            2630             557     1.85581E-03     2.00430E-03
            3213             557     1.85581E-03     2.00430E-03
            2631             557     1.85581E-03     2.00430E-03
            3214             557     1.85581E-03     2.00430E-03
            3214             558     2.00567E-03     2.15135E-03
            2632             558     2.00567E-03     2.15135E-03
            2631             558     2.00567E-03     2.15135E-03
            3215             558     2.00567E-03     2.15135E-03
            3216             559     2.17023E-03     2.31256E-03
            3215             559     2.17023E-03     2.31256E-03
            2633             559     2.17023E-03     2.31256E-03
            2632             559     2.17023E-03     2.31256E-03
            2633             560     2.34641E-03     2.48517E-03
            3216             560     2.34641E-03     2.48517E-03
            3217             560     2.34641E-03     2.48517E-03
            2634             560     2.34641E-03     2.48517E-03
            3218             561     2.53178E-03     2.66697E-03
            2635             561     2.53178E-03     2.66697E-03
            2634             561     2.53178E-03     2.66697E-03
            3217             561     2.53178E-03     2.66697E-03
            3219             562     2.72446E-03     2.85620E-03
            2635             562     2.72446E-03     2.85620E-03
            3218             562     2.72446E-03     2.85620E-03
            2636             562     2.72446E-03     2.85620E-03
            3219             563     2.92300E-03     3.05148E-03
            2637             563     2.92300E-03     3.05148E-03
            3220             563     2.92300E-03     3.05148E-03
            2636             563     2.92300E-03     3.05148E-03
            2638             564     3.12628E-03     3.25171E-03
            3221             564     3.12628E-03     3.25171E-03
            3220             564     3.12628E-03     3.25171E-03
            2637             564     3.12628E-03     3.25171E-03
            3222             565     3.33344E-03     3.45603E-03
            3221             565     3.33344E-03     3.45603E-03
            2639             565     3.33344E-03     3.45603E-03
            2638             565     3.33344E-03     3.45603E-03
            3222             566     3.54379E-03     3.66376E-03
            3223             566     3.54379E-03     3.66376E-03
            2639             566     3.54379E-03     3.66376E-03
            2640             566     3.54379E-03     3.66376E-03
            3224             567     3.75679E-03     3.87434E-03
            2641             567     3.75679E-03     3.87434E-03
            3223             567     3.75679E-03     3.87434E-03
            2640             567     3.75679E-03     3.87434E-03
            3225             568     3.97201E-03     4.08733E-03
            2642             568     3.97201E-03     4.08733E-03
            2641             568     3.97201E-03     4.08733E-03
            3224             568     3.97201E-03     4.08733E-03
            2642             569     16.6529E-15     16.7830E-15
            2659             569     16.6529E-15     16.7830E-15
            2916             569     16.6529E-15     16.7830E-15
            2921             569     16.6529E-15     16.7830E-15
            2921             570     17.3577E-15     17.2618E-15
            2926             570     17.3577E-15     17.2618E-15
            2676             570     17.3577E-15     17.2618E-15
            2659             570     17.3577E-15     17.2618E-15
            2693             571     13.1987E-15     13.4861E-15
            2931             571     13.1987E-15     13.4861E-15
            2676             571     13.1987E-15     13.4861E-15
            2926             571     13.1987E-15     13.4861E-15
            2693             572     12.0290E-15     12.3657E-15
            2936             572     12.0290E-15     12.3657E-15
            2710             572     12.0290E-15     12.3657E-15
            2931             572     12.0290E-15     12.3657E-15
            2709             573     7.82640E-15     7.33299E-15
            2710             573     7.82640E-15     7.33299E-15
            2709             574     6.67341E-15     6.82115E-15
            2708             574     6.67341E-15     6.82115E-15
            2708             575     7.86860E-15     7.42592E-15
            2707             575     7.86860E-15     7.42592E-15
            2707             576     12.1613E-15     11.6013E-15
            2706             576     12.1613E-15     11.6013E-15
            2706             577     16.3686E-15     18.1725E-15
            2705             577     16.3686E-15     18.1725E-15
            2704             578     12.6503E-15     13.7017E-15
            2705             578     12.6503E-15     13.7017E-15
            2704             579     10.1562E-15     8.13552E-15
            2703             579     10.1562E-15     8.13552E-15
            2702             580     8.49320E-15     9.30285E-15
            2703             580     8.49320E-15     9.30285E-15
            2701             581     8.77830E-15     9.59909E-15
            2702             581     8.77830E-15     9.59909E-15
            2700             582     11.9763E-15     10.9945E-15
            2701             582     11.9763E-15     10.9945E-15
            2700             583     9.96898E-15     10.1207E-15
            2699             583     9.96898E-15     10.1207E-15
            2698             584     8.15504E-15     11.1546E-15
            2699             584     8.15504E-15     11.1546E-15
            2697             585     10.9301E-15     12.1737E-15
            2698             585     10.9301E-15     12.1737E-15
            2697             586     8.58070E-15     9.33723E-15
            2696             586     8.58070E-15     9.33723E-15
            2695             587     10.0191E-15     7.62820E-15
            2696             587     10.0191E-15     7.62820E-15
            2695             588     14.8325E-15     3.80499E-15
            2694             588     14.8325E-15     3.80499E-15
            3038             589     11.3011E-15     9.07222E-15
            3055             589     11.3011E-15     9.07222E-15
            2694             589     11.3011E-15     9.07222E-15
            2677             589     11.3011E-15     9.07222E-15
            3021             590     11.9699E-15     16.4569E-15
            3038             590     11.9699E-15     16.4569E-15
            2677             590     11.9699E-15     16.4569E-15
            2660             590     11.9699E-15     16.4569E-15
            2660             591     10.9885E-15     12.9910E-15
            3021             591     10.9885E-15     12.9910E-15
            3004             591     10.9885E-15     12.9910E-15
            2643             591     10.9885E-15     12.9910E-15
            2643             592     15.2165E-15     6.92132E-15
            2987             592     15.2165E-15     6.92132E-15
            2626             592     15.2165E-15     6.92132E-15
            3004             592     15.2165E-15     6.92132E-15
            3250             601     9.27414E-15     9.34787E-15
            3022             601     9.27414E-15     9.34787E-15
            3245             601     9.27414E-15     9.34787E-15
            3039             601     9.27414E-15     9.34787E-15
            3022             602     10.2979E-15     9.14512E-15
            3005             602     10.2979E-15     9.14512E-15
            3240             602     10.2979E-15     9.14512E-15
            3245             602     10.2979E-15     9.14512E-15
            2988             603     13.0357E-15     12.2031E-15
            3240             603     13.0357E-15     12.2031E-15
            3235             603     13.0357E-15     12.2031E-15
            3005             603     13.0357E-15     12.2031E-15
            3235             604     12.5032E-15     11.9830E-15
            3230             604     12.5032E-15     11.9830E-15
            2988             604     12.5032E-15     11.9830E-15
            2971             604     12.5032E-15     11.9830E-15
            2920             605     36.6324E-03     36.7670E-03
            2885             605     36.6324E-03     36.7670E-03
            2919             605     36.6324E-03     36.7670E-03
            2884             605     36.6324E-03     36.7670E-03
            2918             606     32.3193E-03     32.4559E-03
            2883             606     32.3193E-03     32.4559E-03
            2884             606     32.3193E-03     32.4559E-03
            2919             606     32.3193E-03     32.4559E-03
            2918             607     25.6218E-03     25.7618E-03
            2883             607     25.6218E-03     25.7618E-03
            2882             607     25.6218E-03     25.7618E-03
            2917             607     25.6218E-03     25.7618E-03
            2917             608     17.2658E-03     17.4111E-03
            2916             608     17.2658E-03     17.4111E-03
            2881             608     17.2658E-03     17.4111E-03
            2882             608     17.2658E-03     17.4111E-03
            2920             611     7.93973E-15     6.72720E-15
            3231             611     7.93973E-15     6.72720E-15
            2925             611     7.93973E-15     6.72720E-15
            3226             611     7.93973E-15     6.72720E-15
            3231             612     8.08950E-15     7.24844E-15
            2930             612     8.08950E-15     7.24844E-15
            3236             612     8.08950E-15     7.24844E-15
            2925             612     8.08950E-15     7.24844E-15
            2935             613     8.28346E-15     7.88047E-15
            3236             613     8.28346E-15     7.88047E-15
            3241             613     8.28346E-15     7.88047E-15
            2930             613     8.28346E-15     7.88047E-15
            3246             614     9.46376E-15     9.41642E-15
            2940             614     9.46376E-15     9.41642E-15
            2935             614     9.46376E-15     9.41642E-15
            3241             614     9.46376E-15     9.41642E-15
            2940             615     7.32810E-15     7.90848E-15
            2939             615     7.32810E-15     7.90848E-15
            2938             616     8.79116E-15     7.30739E-15
            2939             616     8.79116E-15     7.30739E-15
            2937             617     14.7033E-15     12.6961E-15
            2938             617     14.7033E-15     12.6961E-15
            2936             618     13.0711E-15     13.9509E-15
            2937             618     13.0711E-15     13.9509E-15
            3054             619     12.1192E-15     11.8885E-15
            3055             619     12.1192E-15     11.8885E-15
            3054             620     10.9610E-15     15.8875E-15
            3053             620     10.9610E-15     15.8875E-15
            3052             621     9.84037E-15     13.3226E-15
            3053             621     9.84037E-15     13.3226E-15
            3051             622     13.5703E-15     11.5212E-15
            3052             622     13.5703E-15     11.5212E-15
            3050             623     12.8172E-15     6.76691E-15
            3051             623     12.8172E-15     6.76691E-15
            3050             624     12.4084E-15     4.55652E-15
            3049             624     12.4084E-15     4.55652E-15
            3048             625     12.6026E-15     9.72385E-15
            3049             625     12.6026E-15     9.72385E-15
            3048             626     10.1823E-15     13.5108E-15
            3047             626     10.1823E-15     13.5108E-15
            3046             627     13.8285E-15     16.1740E-15
            3047             627     13.8285E-15     16.1740E-15
            3045             628     15.2006E-15     11.5834E-15
            3046             628     15.2006E-15     11.5834E-15
            3044             629     12.9062E-15     5.86498E-15
            3045             629     12.9062E-15     5.86498E-15
            3043             630     11.9216E-15     10.1101E-15
            3044             630     11.9216E-15     10.1101E-15
            3042             631     11.6046E-15     13.4335E-15
            3043             631     11.6046E-15     13.4335E-15
            3042             632     8.49254E-15     8.33874E-15
            3041             632     8.49254E-15     8.33874E-15
            3040             633     7.64793E-15     7.60666E-15
            3041             633     7.64793E-15     7.60666E-15
            3040             634     8.61934E-15     9.46846E-15
            3039             634     8.61934E-15     9.46846E-15
            3249             635     12.5321E-15     13.6374E-15
            3250             635     12.5321E-15     13.6374E-15
            3248             636     14.7497E-15     15.0923E-15
            3249             636     14.7497E-15     15.0923E-15
            3247             637     12.1096E-15     12.2664E-15
            3248             637     12.1096E-15     12.2664E-15
            3247             638     7.93774E-15     7.94660E-15
            3246             638     7.93774E-15     7.94660E-15
               1             639     8.98620E-03     8.98540E-03
              19             639     8.98620E-03     8.98540E-03
               2             639     8.98620E-03     8.98540E-03
              18             639     8.98620E-03     8.98540E-03
              20             640     9.00360E-03     9.00970E-03
               2             640     9.00360E-03     9.00970E-03
               3             640     9.00360E-03     9.00970E-03
              19             640     9.00360E-03     9.00970E-03
               4             641     9.03131E-03     9.04258E-03
              21             641     9.03131E-03     9.04258E-03
              20             641     9.03131E-03     9.04258E-03
               3             641     9.03131E-03     9.04258E-03
              22             642     9.07070E-03     9.08944E-03
              21             642     9.07070E-03     9.08944E-03
               4             642     9.07070E-03     9.08944E-03
               5             642     9.07070E-03     9.08944E-03
               6             643     9.12167E-03     9.14653E-03
              22             643     9.12167E-03     9.14653E-03
               5             643     9.12167E-03     9.14653E-03
              23             643     9.12167E-03     9.14653E-03
               6             644     9.18366E-03     9.21505E-03
               7             644     9.18366E-03     9.21505E-03
              24             644     9.18366E-03     9.21505E-03
              23             644     9.18366E-03     9.21505E-03
               7             645     9.25724E-03     9.29460E-03
              25             645     9.25724E-03     9.29460E-03
               8             645     9.25724E-03     9.29460E-03
              24             645     9.25724E-03     9.29460E-03
               9             646     9.34135E-03     9.38477E-03
               8             646     9.34135E-03     9.38477E-03
              26             646     9.34135E-03     9.38477E-03
              25             646     9.34135E-03     9.38477E-03
              27             647     9.43783E-03     9.48652E-03
              10             647     9.43783E-03     9.48652E-03
               9             647     9.43783E-03     9.48652E-03
              26             647     9.43783E-03     9.48652E-03
              28             648     9.54169E-03     9.59704E-03
              10             648     9.54169E-03     9.59704E-03
              11             648     9.54169E-03     9.59704E-03
              27             648     9.54169E-03     9.59704E-03
              12             649     9.66725E-03     9.72321E-03
              28             649     9.66725E-03     9.72321E-03
              11             649     9.66725E-03     9.72321E-03
              29             649     9.66725E-03     9.72321E-03
              30             650     9.76760E-03     9.84345E-03
              29             650     9.76760E-03     9.84345E-03
              13             650     9.76760E-03     9.84345E-03
              12             650     9.76760E-03     9.84345E-03
              14             651     10.0028E-03     10.0312E-03
              13             651     10.0028E-03     10.0312E-03
              30             651     10.0028E-03     10.0312E-03
              31             651     10.0028E-03     10.0312E-03
              14             652     9.82411E-03     10.0287E-03
              31             652     9.82411E-03     10.0287E-03
              15             652     9.82411E-03     10.0287E-03
              32             652     9.82411E-03     10.0287E-03
              15             653     11.2559E-03     10.9182E-03
              33             653     11.2559E-03     10.9182E-03
              16             653     11.2559E-03     10.9182E-03
              32             653     11.2559E-03     10.9182E-03
              17             654     9.46139E-03     11.7186E-03
              34             654     9.46139E-03     11.7186E-03
              16             654     9.46139E-03     11.7186E-03
              33             654     9.46139E-03     11.7186E-03
              18             655     10.4390E-03     11.1842E-03
              35             655     10.4390E-03     11.1842E-03
              19             655     10.4390E-03     11.1842E-03
              36             655     10.4390E-03     11.1842E-03
              20             656     11.0503E-03     11.0309E-03
              19             656     11.0503E-03     11.0309E-03
              36             656     11.0503E-03     11.0309E-03
              37             656     11.0503E-03     11.0309E-03
              20             657     11.4422E-03     11.2562E-03
              21             657     11.4422E-03     11.2562E-03
              38             657     11.4422E-03     11.2562E-03
              37             657     11.4422E-03     11.2562E-03
              39             658     11.8863E-03     11.6680E-03
              22             658     11.8863E-03     11.6680E-03
              21             658     11.8863E-03     11.6680E-03
              38             658     11.8863E-03     11.6680E-03
              23             659     12.3988E-03     12.1691E-03
              22             659     12.3988E-03     12.1691E-03
              40             659     12.3988E-03     12.1691E-03
              39             659     12.3988E-03     12.1691E-03
              24             660     12.9504E-03     12.7501E-03
              40             660     12.9504E-03     12.7501E-03
              41             660     12.9504E-03     12.7501E-03
              23             660     12.9504E-03     12.7501E-03
              42             661     13.5566E-03     13.3981E-03
              41             661     13.5566E-03     13.3981E-03
              25             661     13.5566E-03     13.3981E-03
              24             661     13.5566E-03     13.3981E-03
              26             662     14.1781E-03     14.0771E-03
              25             662     14.1781E-03     14.0771E-03
              43             662     14.1781E-03     14.0771E-03
              42             662     14.1781E-03     14.0771E-03
              26             663     14.8345E-03     14.7980E-03
              44             663     14.8345E-03     14.7980E-03
              43             663     14.8345E-03     14.7980E-03
              27             663     14.8345E-03     14.7980E-03
              44             664     15.4613E-03     15.5001E-03
              45             664     15.4613E-03     15.5001E-03
              28             664     15.4613E-03     15.5001E-03
              27             664     15.4613E-03     15.5001E-03
              46             665     16.0934E-03     16.1772E-03
              29             665     16.0934E-03     16.1772E-03
              45             665     16.0934E-03     16.1772E-03
              28             665     16.0934E-03     16.1772E-03
              30             666     16.5589E-03     16.7321E-03
              29             666     16.5589E-03     16.7321E-03
              47             666     16.5589E-03     16.7321E-03
              46             666     16.5589E-03     16.7321E-03
              48             667     16.8709E-03     17.0060E-03
              31             667     16.8709E-03     17.0060E-03
              30             667     16.8709E-03     17.0060E-03
              47             667     16.8709E-03     17.0060E-03
              48             668     16.4635E-03     16.7083E-03
              31             668     16.4635E-03     16.7083E-03
              49             668     16.4635E-03     16.7083E-03
              32             668     16.4635E-03     16.7083E-03
              32             669     15.8767E-03     15.5886E-03
              50             669     15.8767E-03     15.5886E-03
              49             669     15.8767E-03     15.5886E-03
              33             669     15.8767E-03     15.5886E-03
              33             670     13.5660E-03     14.8710E-03
              34             670     13.5660E-03     14.8710E-03
              51             670     13.5660E-03     14.8710E-03
              50             670     13.5660E-03     14.8710E-03
              52             671     11.9668E-03     12.7673E-03
              35             671     11.9668E-03     12.7673E-03
              36             671     11.9668E-03     12.7673E-03
              53             671     11.9668E-03     12.7673E-03
              53             672     12.7298E-03     12.5062E-03
              36             672     12.7298E-03     12.5062E-03
              54             672     12.7298E-03     12.5062E-03
              37             672     12.7298E-03     12.5062E-03
              37             673     13.7059E-03     12.7478E-03
              54             673     13.7059E-03     12.7478E-03
              38             673     13.7059E-03     12.7478E-03
              55             673     13.7059E-03     12.7478E-03
              39             674     14.7291E-03     13.4259E-03
              55             674     14.7291E-03     13.4259E-03
              38             674     14.7291E-03     13.4259E-03
              56             674     14.7291E-03     13.4259E-03
              39             675     15.8378E-03     14.3107E-03
              56             675     15.8378E-03     14.3107E-03
              40             675     15.8378E-03     14.3107E-03
              57             675     15.8378E-03     14.3107E-03
              40             676     17.0613E-03     15.3460E-03
              58             676     17.0613E-03     15.3460E-03
              41             676     17.0613E-03     15.3460E-03
              57             676     17.0613E-03     15.3460E-03
              58             677     18.3582E-03     16.4989E-03
              59             677     18.3582E-03     16.4989E-03
              41             677     18.3582E-03     16.4989E-03
              42             677     18.3582E-03     16.4989E-03
              42             678     19.7208E-03     17.7386E-03
              60             678     19.7208E-03     17.7386E-03
              43             678     19.7208E-03     17.7386E-03
              59             678     19.7208E-03     17.7386E-03
              43             679     21.1158E-03     19.0375E-03
              44             679     21.1158E-03     19.0375E-03
              61             679     21.1158E-03     19.0375E-03
              60             679     21.1158E-03     19.0375E-03
              62             680     22.5446E-03     20.3630E-03
              44             680     22.5446E-03     20.3630E-03
              45             680     22.5446E-03     20.3630E-03
              61             680     22.5446E-03     20.3630E-03
              45             681     23.9225E-03     21.6719E-03
              46             681     23.9225E-03     21.6719E-03
              62             681     23.9225E-03     21.6719E-03
              63             681     23.9225E-03     21.6719E-03
              47             682     25.2258E-03     22.8436E-03
              46             682     25.2258E-03     22.8436E-03
              63             682     25.2258E-03     22.8436E-03
              64             682     25.2258E-03     22.8436E-03
              64             683     26.0915E-03     23.6302E-03
              65             683     26.0915E-03     23.6302E-03
              48             683     26.0915E-03     23.6302E-03
              47             683     26.0915E-03     23.6302E-03
              65             684     26.0140E-03     23.4394E-03
              49             684     26.0140E-03     23.4394E-03
              66             684     26.0140E-03     23.4394E-03
              48             684     26.0140E-03     23.4394E-03
              50             685     23.6543E-03     21.0299E-03
              49             685     23.6543E-03     21.0299E-03
              67             685     23.6543E-03     21.0299E-03
              66             685     23.6543E-03     21.0299E-03
              51             686     19.0882E-03     17.9523E-03
              68             686     19.0882E-03     17.9523E-03
              67             686     19.0882E-03     17.9523E-03
              50             686     19.0882E-03     17.9523E-03
              53             687     11.5234E-03     11.0884E-03
              52             687     11.5234E-03     11.0884E-03
              69             687     11.5234E-03     11.0884E-03
              70             687     11.5234E-03     11.0884E-03
              54             688     11.6458E-03     11.6047E-03
              71             688     11.6458E-03     11.6047E-03
              70             688     11.6458E-03     11.6047E-03
              53             688     11.6458E-03     11.6047E-03
              71             689     12.4202E-03     12.0759E-03
              54             689     12.4202E-03     12.0759E-03
              55             689     12.4202E-03     12.0759E-03
              72             689     12.4202E-03     12.0759E-03
              55             690     13.4223E-03     12.8873E-03
              72             690     13.4223E-03     12.8873E-03
              56             690     13.4223E-03     12.8873E-03
              73             690     13.4223E-03     12.8873E-03
              56             691     14.5579E-03     13.9257E-03
              74             691     14.5579E-03     13.9257E-03
              57             691     14.5579E-03     13.9257E-03
              73             691     14.5579E-03     13.9257E-03
              74             692     15.8297E-03     15.1170E-03
              58             692     15.8297E-03     15.1170E-03
              57             692     15.8297E-03     15.1170E-03
              75             692     15.8297E-03     15.1170E-03
              58             693     17.1939E-03     16.4355E-03
              75             693     17.1939E-03     16.4355E-03
              59             693     17.1939E-03     16.4355E-03
              76             693     17.1939E-03     16.4355E-03
              60             694     18.6470E-03     17.8458E-03
              59             694     18.6470E-03     17.8458E-03
              76             694     18.6470E-03     17.8458E-03
              77             694     18.6470E-03     17.8458E-03
              78             695     20.1748E-03     19.3382E-03
              60             695     20.1748E-03     19.3382E-03
              61             695     20.1748E-03     19.3382E-03
              77             695     20.1748E-03     19.3382E-03
              61             696     21.7718E-03     20.9095E-03
              79             696     21.7718E-03     20.9095E-03
              78             696     21.7718E-03     20.9095E-03
              62             696     21.7718E-03     20.9095E-03
              79             697     23.4455E-03     22.5530E-03
              80             697     23.4455E-03     22.5530E-03
              62             697     23.4455E-03     22.5530E-03
              63             697     23.4455E-03     22.5530E-03
              80             698     25.1216E-03     24.2180E-03
              81             698     25.1216E-03     24.2180E-03
              64             698     25.1216E-03     24.2180E-03
              63             698     25.1216E-03     24.2180E-03
              64             699     26.6967E-03     25.7679E-03
              81             699     26.6967E-03     25.7679E-03
              82             699     26.6967E-03     25.7679E-03
              65             699     26.6967E-03     25.7679E-03
              83             700     27.5372E-03     26.7425E-03
              82             700     27.5372E-03     26.7425E-03
              66             700     27.5372E-03     26.7425E-03
              65             700     27.5372E-03     26.7425E-03
              84             701     25.6822E-03     25.6126E-03
              67             701     25.6822E-03     25.6126E-03
              83             701     25.6822E-03     25.6126E-03
              66             701     25.6822E-03     25.6126E-03
              84             702     24.7233E-03     24.7111E-03
              67             702     24.7233E-03     24.7111E-03
              68             702     24.7233E-03     24.7111E-03
              85             702     24.7233E-03     24.7111E-03
              70             703     10.6273E-03     9.42852E-03
              86             703     10.6273E-03     9.42852E-03
              87             703     10.6273E-03     9.42852E-03
              69             703     10.6273E-03     9.42852E-03
              71             704     10.7511E-03     10.4642E-03
              87             704     10.7511E-03     10.4642E-03
              70             704     10.7511E-03     10.4642E-03
              88             704     10.7511E-03     10.4642E-03
              88             705     11.1749E-03     11.4876E-03
              89             705     11.1749E-03     11.4876E-03
              72             705     11.1749E-03     11.4876E-03
              71             705     11.1749E-03     11.4876E-03
              73             706     12.1072E-03     12.4709E-03
              90             706     12.1072E-03     12.4709E-03
              89             706     12.1072E-03     12.4709E-03
              72             706     12.1072E-03     12.4709E-03
              73             707     13.2827E-03     13.6593E-03
              91             707     13.2827E-03     13.6593E-03
              90             707     13.2827E-03     13.6593E-03
              74             707     13.2827E-03     13.6593E-03
              91             708     14.5851E-03     15.0043E-03
              75             708     14.5851E-03     15.0043E-03
              92             708     14.5851E-03     15.0043E-03
              74             708     14.5851E-03     15.0043E-03
              93             709     16.0180E-03     16.4574E-03
              76             709     16.0180E-03     16.4574E-03
              92             709     16.0180E-03     16.4574E-03
              75             709     16.0180E-03     16.4574E-03
              94             710     17.5359E-03     17.9994E-03
              77             710     17.5359E-03     17.9994E-03
              76             710     17.5359E-03     17.9994E-03
              93             710     17.5359E-03     17.9994E-03
              77             711     19.1473E-03     19.6224E-03
              95             711     19.1473E-03     19.6224E-03
              78             711     19.1473E-03     19.6224E-03
              94             711     19.1473E-03     19.6224E-03
              96             712     20.8290E-03     21.3238E-03
              78             712     20.8290E-03     21.3238E-03
              79             712     20.8290E-03     21.3238E-03
              95             712     20.8290E-03     21.3238E-03
              97             713     22.6101E-03     23.1094E-03
              79             713     22.6101E-03     23.1094E-03
              80             713     22.6101E-03     23.1094E-03
              96             713     22.6101E-03     23.1094E-03
              97             714     24.4336E-03     24.9890E-03
              81             714     24.4336E-03     24.9890E-03
              98             714     24.4336E-03     24.9890E-03
              80             714     24.4336E-03     24.9890E-03
              81             715     26.2769E-03     26.8670E-03
              99             715     26.2769E-03     26.8670E-03
              82             715     26.2769E-03     26.8670E-03
              98             715     26.2769E-03     26.8670E-03
             100             716     27.9309E-03     28.6638E-03
              83             716     27.9309E-03     28.6638E-03
              99             716     27.9309E-03     28.6638E-03
              82             716     27.9309E-03     28.6638E-03
             101             717     28.9373E-03     29.8146E-03
              84             717     28.9373E-03     29.8146E-03
              83             717     28.9373E-03     29.8146E-03
             100             717     28.9373E-03     29.8146E-03
              85             718     31.5414E-03     32.2108E-03
             102             718     31.5414E-03     32.2108E-03
             101             718     31.5414E-03     32.2108E-03
              84             718     31.5414E-03     32.2108E-03
              87             719     9.32170E-03     8.71615E-03
             104             719     9.32170E-03     8.71615E-03
             103             719     9.32170E-03     8.71615E-03
              86             719     9.32170E-03     8.71615E-03
             105             720     9.33772E-03     9.77083E-03
             104             720     9.33772E-03     9.77083E-03
              88             720     9.33772E-03     9.77083E-03
              87             720     9.33772E-03     9.77083E-03
              88             721     9.88286E-03     10.9289E-03
             106             721     9.88286E-03     10.9289E-03
              89             721     9.88286E-03     10.9289E-03
             105             721     9.88286E-03     10.9289E-03
             107             722     10.7997E-03     12.1476E-03
             106             722     10.7997E-03     12.1476E-03
              89             722     10.7997E-03     12.1476E-03
              90             722     10.7997E-03     12.1476E-03
             107             723     11.9676E-03     13.4982E-03
             108             723     11.9676E-03     13.4982E-03
              90             723     11.9676E-03     13.4982E-03
              91             723     11.9676E-03     13.4982E-03
             108             724     13.3210E-03     14.9689E-03
             109             724     13.3210E-03     14.9689E-03
              92             724     13.3210E-03     14.9689E-03
              91             724     13.3210E-03     14.9689E-03
             109             725     14.7869E-03     16.5241E-03
             110             725     14.7869E-03     16.5241E-03
              92             725     14.7869E-03     16.5241E-03
              93             725     14.7869E-03     16.5241E-03
             111             726     16.3549E-03     18.1533E-03
              93             726     16.3549E-03     18.1533E-03
             110             726     16.3549E-03     18.1533E-03
              94             726     16.3549E-03     18.1533E-03
              95             727     17.9835E-03     19.8290E-03
             112             727     17.9835E-03     19.8290E-03
             111             727     17.9835E-03     19.8290E-03
              94             727     17.9835E-03     19.8290E-03
             112             728     19.6866E-03     21.5582E-03
             113             728     19.6866E-03     21.5582E-03
              96             728     19.6866E-03     21.5582E-03
              95             728     19.6866E-03     21.5582E-03
              97             729     21.4078E-03     23.3287E-03
              96             729     21.4078E-03     23.3287E-03
             113             729     21.4078E-03     23.3287E-03
             114             729     21.4078E-03     23.3287E-03
             114             730     23.2304E-03     25.1695E-03
              97             730     23.2304E-03     25.1695E-03
             115             730     23.2304E-03     25.1695E-03
              98             730     23.2304E-03     25.1695E-03
             116             731     25.0829E-03     27.1369E-03
              99             731     25.0829E-03     27.1369E-03
              98             731     25.0829E-03     27.1369E-03
             115             731     25.0829E-03     27.1369E-03
             116             732     27.2365E-03     29.3488E-03
             100             732     27.2365E-03     29.3488E-03
             117             732     27.2365E-03     29.3488E-03
              99             732     27.2365E-03     29.3488E-03
             101             733     31.5599E-03     33.0652E-03
             117             733     31.5599E-03     33.0652E-03
             118             733     31.5599E-03     33.0652E-03
             100             733     31.5599E-03     33.0652E-03
             102             734     38.5899E-03     38.9529E-03
             119             734     38.5899E-03     38.9529E-03
             101             734     38.5899E-03     38.9529E-03
             118             734     38.5899E-03     38.9529E-03
             103             735     7.54614E-03     8.38292E-03
             104             735     7.54614E-03     8.38292E-03
             120             735     7.54614E-03     8.38292E-03
             121             735     7.54614E-03     8.38292E-03
             104             736     7.79572E-03     9.35252E-03
             121             736     7.79572E-03     9.35252E-03
             105             736     7.79572E-03     9.35252E-03
             122             736     7.79572E-03     9.35252E-03
             106             737     8.49353E-03     10.5102E-03
             122             737     8.49353E-03     10.5102E-03
             123             737     8.49353E-03     10.5102E-03
             105             737     8.49353E-03     10.5102E-03
             107             738     9.43163E-03     11.9301E-03
             124             738     9.43163E-03     11.9301E-03
             106             738     9.43163E-03     11.9301E-03
             123             738     9.43163E-03     11.9301E-03
             124             739     10.6223E-03     13.4283E-03
             125             739     10.6223E-03     13.4283E-03
             108             739     10.6223E-03     13.4283E-03
             107             739     10.6223E-03     13.4283E-03
             125             740     11.9999E-03     14.9912E-03
             108             740     11.9999E-03     14.9912E-03
             126             740     11.9999E-03     14.9912E-03
             109             740     11.9999E-03     14.9912E-03
             126             741     13.5008E-03     16.6246E-03
             110             741     13.5008E-03     16.6246E-03
             109             741     13.5008E-03     16.6246E-03
             127             741     13.5008E-03     16.6246E-03
             127             742     15.0815E-03     18.2878E-03
             110             742     15.0815E-03     18.2878E-03
             111             742     15.0815E-03     18.2878E-03
             128             742     15.0815E-03     18.2878E-03
             128             743     16.7219E-03     19.9894E-03
             129             743     16.7219E-03     19.9894E-03
             111             743     16.7219E-03     19.9894E-03
             112             743     16.7219E-03     19.9894E-03
             130             744     18.3770E-03     21.6885E-03
             113             744     18.3770E-03     21.6885E-03
             112             744     18.3770E-03     21.6885E-03
             129             744     18.3770E-03     21.6885E-03
             113             745     20.0741E-03     23.4090E-03
             130             745     20.0741E-03     23.4090E-03
             131             745     20.0741E-03     23.4090E-03
             114             745     20.0741E-03     23.4090E-03
             131             746     21.7790E-03     25.1405E-03
             115             746     21.7790E-03     25.1405E-03
             114             746     21.7790E-03     25.1405E-03
             132             746     21.7790E-03     25.1405E-03
             132             747     23.7154E-03     27.0952E-03
             133             747     23.7154E-03     27.0952E-03
             115             747     23.7154E-03     27.0952E-03
             116             747     23.7154E-03     27.0952E-03
             133             748     26.2454E-03     29.6141E-03
             116             748     26.2454E-03     29.6141E-03
             117             748     26.2454E-03     29.6141E-03
             134             748     26.2454E-03     29.6141E-03
             118             749     31.1175E-03     34.4975E-03
             134             749     31.1175E-03     34.4975E-03
             117             749     31.1175E-03     34.4975E-03
             135             749     31.1175E-03     34.4975E-03
             118             750     42.5126E-03     45.2547E-03
             136             750     42.5126E-03     45.2547E-03
             119             750     42.5126E-03     45.2547E-03
             135             750     42.5126E-03     45.2547E-03
             138             751     11.9001E-03     13.6875E-03
             120             751     11.9001E-03     13.6875E-03
             137             751     11.9001E-03     13.6875E-03
             121             751     11.9001E-03     13.6875E-03
             139             752     13.5485E-03     14.2127E-03
             121             752     13.5485E-03     14.2127E-03
             122             752     13.5485E-03     14.2127E-03
             138             752     13.5485E-03     14.2127E-03
             122             753     15.0484E-03     15.7154E-03
             123             753     15.0484E-03     15.7154E-03
             139             753     15.0484E-03     15.7154E-03
             140             753     15.0484E-03     15.7154E-03
             141             754     16.8903E-03     17.7020E-03
             140             754     16.8903E-03     17.7020E-03
             124             754     16.8903E-03     17.7020E-03
             123             754     16.8903E-03     17.7020E-03
             141             755     19.0142E-03     19.8940E-03
             125             755     19.0142E-03     19.8940E-03
             142             755     19.0142E-03     19.8940E-03
             124             755     19.0142E-03     19.8940E-03
             142             756     21.3174E-03     22.2553E-03
             125             756     21.3174E-03     22.2553E-03
             143             756     21.3174E-03     22.2553E-03
             126             756     21.3174E-03     22.2553E-03
             144             757     23.7587E-03     24.7034E-03
             127             757     23.7587E-03     24.7034E-03
             126             757     23.7587E-03     24.7034E-03
             143             757     23.7587E-03     24.7034E-03
             145             758     26.2616E-03     27.2143E-03
             128             758     26.2616E-03     27.2143E-03
             144             758     26.2616E-03     27.2143E-03
             127             758     26.2616E-03     27.2143E-03
             146             759     28.7885E-03     29.7332E-03
             145             759     28.7885E-03     29.7332E-03
             129             759     28.7885E-03     29.7332E-03
             128             759     28.7885E-03     29.7332E-03
             129             760     31.2923E-03     32.2098E-03
             146             760     31.2923E-03     32.2098E-03
             147             760     31.2923E-03     32.2098E-03
             130             760     31.2923E-03     32.2098E-03
             130             761     33.7212E-03     34.6000E-03
             131             761     33.7212E-03     34.6000E-03
             147             761     33.7212E-03     34.6000E-03
             148             761     33.7212E-03     34.6000E-03
             131             762     36.0014E-03     36.7756E-03
             132             762     36.0014E-03     36.7756E-03
             149             762     36.0014E-03     36.7756E-03
             148             762     36.0014E-03     36.7756E-03
             150             763     38.1178E-03     38.7529E-03
             132             763     38.1178E-03     38.7529E-03
             133             763     38.1178E-03     38.7529E-03
             149             763     38.1178E-03     38.7529E-03
             151             764     40.1127E-03     40.5088E-03
             133             764     40.1127E-03     40.5088E-03
             150             764     40.1127E-03     40.5088E-03
             134             764     40.1127E-03     40.5088E-03
             152             765     42.1309E-03     42.3828E-03
             134             765     42.1309E-03     42.3828E-03
             151             765     42.1309E-03     42.3828E-03
             135             765     42.1309E-03     42.3828E-03
             152             766     45.7870E-03     46.7758E-03
             153             766     45.7870E-03     46.7758E-03
             135             766     45.7870E-03     46.7758E-03
             136             766     45.7870E-03     46.7758E-03
             137             767     16.5037E-03     18.2440E-03
             154             767     16.5037E-03     18.2440E-03
             155             767     16.5037E-03     18.2440E-03
             138             767     16.5037E-03     18.2440E-03
             138             768     18.5304E-03     18.6231E-03
             155             768     18.5304E-03     18.6231E-03
             156             768     18.5304E-03     18.6231E-03
             139             768     18.5304E-03     18.6231E-03
             139             769     21.1448E-03     20.3432E-03
             140             769     21.1448E-03     20.3432E-03
             157             769     21.1448E-03     20.3432E-03
             156             769     21.1448E-03     20.3432E-03
             140             770     24.0519E-03     22.9218E-03
             157             770     24.0519E-03     22.9218E-03
             141             770     24.0519E-03     22.9218E-03
             158             770     24.0519E-03     22.9218E-03
             158             771     27.2126E-03     25.9218E-03
             159             771     27.2126E-03     25.9218E-03
             142             771     27.2126E-03     25.9218E-03
             141             771     27.2126E-03     25.9218E-03
             142             772     30.5814E-03     29.1890E-03
             159             772     30.5814E-03     29.1890E-03
             160             772     30.5814E-03     29.1890E-03
             143             772     30.5814E-03     29.1890E-03
             144             773     34.0790E-03     32.6141E-03
             143             773     34.0790E-03     32.6141E-03
             161             773     34.0790E-03     32.6141E-03
             160             773     34.0790E-03     32.6141E-03
             145             774     37.6552E-03     36.1366E-03
             161             774     37.6552E-03     36.1366E-03
             162             774     37.6552E-03     36.1366E-03
             144             774     37.6552E-03     36.1366E-03
             162             775     41.2740E-03     39.6918E-03
             145             775     41.2740E-03     39.6918E-03
             163             775     41.2740E-03     39.6918E-03
             146             775     41.2740E-03     39.6918E-03
             163             776     44.8674E-03     43.2374E-03
             146             776     44.8674E-03     43.2374E-03
             147             776     44.8674E-03     43.2374E-03
             164             776     44.8674E-03     43.2374E-03
             147             777     48.3857E-03     46.6573E-03
             164             777     48.3857E-03     46.6573E-03
             165             777     48.3857E-03     46.6573E-03
             148             777     48.3857E-03     46.6573E-03
             166             778     51.6673E-03     49.8457E-03
             165             778     51.6673E-03     49.8457E-03
             149             778     51.6673E-03     49.8457E-03
             148             778     51.6673E-03     49.8457E-03
             166             779     54.3900E-03     52.4397E-03
             150             779     54.3900E-03     52.4397E-03
             167             779     54.3900E-03     52.4397E-03
             149             779     54.3900E-03     52.4397E-03
             150             780     56.1602E-03     54.0271E-03
             151             780     56.1602E-03     54.0271E-03
             167             780     56.1602E-03     54.0271E-03
             168             780     56.1602E-03     54.0271E-03
             152             781     55.6207E-03     53.5834E-03
             151             781     55.6207E-03     53.5834E-03
             168             781     55.6207E-03     53.5834E-03
             169             781     55.6207E-03     53.5834E-03
             169             782     52.0126E-03     50.1203E-03
             170             782     52.0126E-03     50.1203E-03
             152             782     52.0126E-03     50.1203E-03
             153             782     52.0126E-03     50.1203E-03
             155             783     14.8233E-03     15.3199E-03
             154             783     14.8233E-03     15.3199E-03
             172             783     14.8233E-03     15.3199E-03
             171             783     14.8233E-03     15.3199E-03
             173             784     16.1673E-03     16.9492E-03
             155             784     16.1673E-03     16.9492E-03
             156             784     16.1673E-03     16.9492E-03
             172             784     16.1673E-03     16.9492E-03
             173             785     18.8953E-03     18.9667E-03
             156             785     18.8953E-03     18.9667E-03
             174             785     18.8953E-03     18.9667E-03
             157             785     18.8953E-03     18.9667E-03
             158             786     22.1055E-03     21.8121E-03
             174             786     22.1055E-03     21.8121E-03
             157             786     22.1055E-03     21.8121E-03
             175             786     22.1055E-03     21.8121E-03
             158             787     25.5359E-03     25.1321E-03
             175             787     25.5359E-03     25.1321E-03
             159             787     25.5359E-03     25.1321E-03
             176             787     25.5359E-03     25.1321E-03
             160             788     29.1604E-03     28.7069E-03
             177             788     29.1604E-03     28.7069E-03
             176             788     29.1604E-03     28.7069E-03
             159             788     29.1604E-03     28.7069E-03
             161             789     32.9140E-03     32.4501E-03
             160             789     32.9140E-03     32.4501E-03
             178             789     32.9140E-03     32.4501E-03
             177             789     32.9140E-03     32.4501E-03
             161             790     36.7789E-03     36.3006E-03
             178             790     36.7789E-03     36.3006E-03
             162             790     36.7789E-03     36.3006E-03
             179             790     36.7789E-03     36.3006E-03
             179             791     40.7175E-03     40.2376E-03
             180             791     40.7175E-03     40.2376E-03
             162             791     40.7175E-03     40.2376E-03
             163             791     40.7175E-03     40.2376E-03
             164             792     44.7328E-03     44.2371E-03
             180             792     44.7328E-03     44.2371E-03
             163             792     44.7328E-03     44.2371E-03
             181             792     44.7328E-03     44.2371E-03
             181             793     48.7472E-03     48.2649E-03
             164             793     48.7472E-03     48.2649E-03
             165             793     48.7472E-03     48.2649E-03
             182             793     48.7472E-03     48.2649E-03
             166             794     52.7251E-03     52.2442E-03
             183             794     52.7251E-03     52.2442E-03
             182             794     52.7251E-03     52.2442E-03
             165             794     52.7251E-03     52.2442E-03
             183             795     56.3160E-03     55.9460E-03
             184             795     56.3160E-03     55.9460E-03
             166             795     56.3160E-03     55.9460E-03
             167             795     56.3160E-03     55.9460E-03
             185             796     58.9156E-03     58.8616E-03
             184             796     58.9156E-03     58.8616E-03
             167             796     58.9156E-03     58.8616E-03
             168             796     58.9156E-03     58.8616E-03
             185             797     59.3057E-03     59.7802E-03
             186             797     59.3057E-03     59.7802E-03
             169             797     59.3057E-03     59.7802E-03
             168             797     59.3057E-03     59.7802E-03
             186             798     59.1005E-03     59.8846E-03
             169             798     59.1005E-03     59.8846E-03
             170             798     59.1005E-03     59.8846E-03
             187             798     59.1005E-03     59.8846E-03
             171             799     12.6880E-03     12.2842E-03
             189             799     12.6880E-03     12.2842E-03
             188             799     12.6880E-03     12.2842E-03
             172             799     12.6880E-03     12.2842E-03
             172             800     14.2774E-03     14.8401E-03
             190             800     14.2774E-03     14.8401E-03
             189             800     14.2774E-03     14.8401E-03
             173             800     14.2774E-03     14.8401E-03
             191             801     16.9166E-03     17.7132E-03
             190             801     16.9166E-03     17.7132E-03
             174             801     16.9166E-03     17.7132E-03
             173             801     16.9166E-03     17.7132E-03
             192             802     20.2923E-03     20.9376E-03
             191             802     20.2923E-03     20.9376E-03
             174             802     20.2923E-03     20.9376E-03
             175             802     20.2923E-03     20.9376E-03
             192             803     23.9598E-03     24.5579E-03
             175             803     23.9598E-03     24.5579E-03
             176             803     23.9598E-03     24.5579E-03
             193             803     23.9598E-03     24.5579E-03
             177             804     27.7928E-03     28.3912E-03
             193             804     27.7928E-03     28.3912E-03
             194             804     27.7928E-03     28.3912E-03
             176             804     27.7928E-03     28.3912E-03
             177             805     31.7571E-03     32.3669E-03
             194             805     31.7571E-03     32.3669E-03
             195             805     31.7571E-03     32.3669E-03
             178             805     31.7571E-03     32.3669E-03
             178             806     35.8152E-03     36.4475E-03
             195             806     35.8152E-03     36.4475E-03
             179             806     35.8152E-03     36.4475E-03
             196             806     35.8152E-03     36.4475E-03
             180             807     39.9690E-03     40.6216E-03
             196             807     39.9690E-03     40.6216E-03
             197             807     39.9690E-03     40.6216E-03
             179             807     39.9690E-03     40.6216E-03
             197             808     44.1945E-03     44.8823E-03
             181             808     44.1945E-03     44.8823E-03
             180             808     44.1945E-03     44.8823E-03
             198             808     44.1945E-03     44.8823E-03
             181             809     48.5124E-03     49.2553E-03
             198             809     48.5124E-03     49.2553E-03
             182             809     48.5124E-03     49.2553E-03
             199             809     48.5124E-03     49.2553E-03
             200             810     52.8038E-03     53.6696E-03
             182             810     52.8038E-03     53.6696E-03
             199             810     52.8038E-03     53.6696E-03
             183             810     52.8038E-03     53.6696E-03
             183             811     57.1260E-03     58.1322E-03
             184             811     57.1260E-03     58.1322E-03
             200             811     57.1260E-03     58.1322E-03
             201             811     57.1260E-03     58.1322E-03
             185             812     60.7973E-03     62.1695E-03
             201             812     60.7973E-03     62.1695E-03
             202             812     60.7973E-03     62.1695E-03
             184             812     60.7973E-03     62.1695E-03
             185             813     63.4525E-03     65.2134E-03
             203             813     63.4525E-03     65.2134E-03
             202             813     63.4525E-03     65.2134E-03
             186             813     63.4525E-03     65.2134E-03
             186             814     66.9698E-03     67.9704E-03
             203             814     66.9698E-03     67.9704E-03
             187             814     66.9698E-03     67.9704E-03
             204             814     66.9698E-03     67.9704E-03
             205             815     10.3683E-03     10.1725E-03
             188             815     10.3683E-03     10.1725E-03
             189             815     10.3683E-03     10.1725E-03
             206             815     10.3683E-03     10.1725E-03
             190             816     12.2286E-03     13.0091E-03
             206             816     12.2286E-03     13.0091E-03
             207             816     12.2286E-03     13.0091E-03
             189             816     12.2286E-03     13.0091E-03
             208             817     15.1061E-03     16.5560E-03
             207             817     15.1061E-03     16.5560E-03
             191             817     15.1061E-03     16.5560E-03
             190             817     15.1061E-03     16.5560E-03
             192             818     18.5998E-03     20.2574E-03
             208             818     18.5998E-03     20.2574E-03
             209             818     18.5998E-03     20.2574E-03
             191             818     18.5998E-03     20.2574E-03
             209             819     22.4408E-03     24.1297E-03
             210             819     22.4408E-03     24.1297E-03
             192             819     22.4408E-03     24.1297E-03
             193             819     22.4408E-03     24.1297E-03
             210             820     26.4328E-03     28.1559E-03
             193             820     26.4328E-03     28.1559E-03
             194             820     26.4328E-03     28.1559E-03
             211             820     26.4328E-03     28.1559E-03
             211             821     30.5208E-03     32.2739E-03
             195             821     30.5208E-03     32.2739E-03
             212             821     30.5208E-03     32.2739E-03
             194             821     30.5208E-03     32.2739E-03
             195             822     34.6850E-03     36.4656E-03
             212             822     34.6850E-03     36.4656E-03
             213             822     34.6850E-03     36.4656E-03
             196             822     34.6850E-03     36.4656E-03
             214             823     38.9123E-03     40.7197E-03
             196             823     38.9123E-03     40.7197E-03
             213             823     38.9123E-03     40.7197E-03
             197             823     38.9123E-03     40.7197E-03
             198             824     43.2003E-03     45.0557E-03
             214             824     43.2003E-03     45.0557E-03
             215             824     43.2003E-03     45.0557E-03
             197             824     43.2003E-03     45.0557E-03
             215             825     47.5525E-03     49.4727E-03
             216             825     47.5525E-03     49.4727E-03
             198             825     47.5525E-03     49.4727E-03
             199             825     47.5525E-03     49.4727E-03
             216             826     52.0241E-03     54.0701E-03
             200             826     52.0241E-03     54.0701E-03
             217             826     52.0241E-03     54.0701E-03
             199             826     52.0241E-03     54.0701E-03
             218             827     56.5765E-03     58.8007E-03
             201             827     56.5765E-03     58.8007E-03
             217             827     56.5765E-03     58.8007E-03
             200             827     56.5765E-03     58.8007E-03
             218             828     61.8026E-03     63.9921E-03
             219             828     61.8026E-03     63.9921E-03
             202             828     61.8026E-03     63.9921E-03
             201             828     61.8026E-03     63.9921E-03
             203             829     67.6957E-03     69.5841E-03
             220             829     67.6957E-03     69.5841E-03
             219             829     67.6957E-03     69.5841E-03
             202             829     67.6957E-03     69.5841E-03
             204             830     73.8590E-03     75.6588E-03
             221             830     73.8590E-03     75.6588E-03
             203             830     73.8590E-03     75.6588E-03
             220             830     73.8590E-03     75.6588E-03
             206             831     7.99054E-03     8.26568E-03
             223             831     7.99054E-03     8.26568E-03
             205             831     7.99054E-03     8.26568E-03
             222             831     7.99054E-03     8.26568E-03
             206             832     10.0857E-03     11.8266E-03
             207             832     10.0857E-03     11.8266E-03
             223             832     10.0857E-03     11.8266E-03
             224             832     10.0857E-03     11.8266E-03
             207             833     13.2877E-03     15.7125E-03
             208             833     13.2877E-03     15.7125E-03
             224             833     13.2877E-03     15.7125E-03
             225             833     13.2877E-03     15.7125E-03
             208             834     17.0072E-03     19.7584E-03
             209             834     17.0072E-03     19.7584E-03
             225             834     17.0072E-03     19.7584E-03
             226             834     17.0072E-03     19.7584E-03
             227             835     20.9708E-03     23.8366E-03
             210             835     20.9708E-03     23.8366E-03
             226             835     20.9708E-03     23.8366E-03
             209             835     20.9708E-03     23.8366E-03
             227             836     25.0556E-03     27.9733E-03
             210             836     25.0556E-03     27.9733E-03
             211             836     25.0556E-03     27.9733E-03
             228             836     25.0556E-03     27.9733E-03
             211             837     29.2016E-03     32.1490E-03
             212             837     29.2016E-03     32.1490E-03
             229             837     29.2016E-03     32.1490E-03
             228             837     29.2016E-03     32.1490E-03
             212             838     33.3876E-03     36.3507E-03
             230             838     33.3876E-03     36.3507E-03
             229             838     33.3876E-03     36.3507E-03
             213             838     33.3876E-03     36.3507E-03
             214             839     37.5923E-03     40.5730E-03
             231             839     37.5923E-03     40.5730E-03
             230             839     37.5923E-03     40.5730E-03
             213             839     37.5923E-03     40.5730E-03
             214             840     41.8316E-03     44.8231E-03
             232             840     41.8316E-03     44.8231E-03
             231             840     41.8316E-03     44.8231E-03
             215             840     41.8316E-03     44.8231E-03
             232             841     46.1007E-03     49.1376E-03
             215             841     46.1007E-03     49.1376E-03
             233             841     46.1007E-03     49.1376E-03
             216             841     46.1007E-03     49.1376E-03
             216             842     50.5219E-03     53.5986E-03
             233             842     50.5219E-03     53.5986E-03
             217             842     50.5219E-03     53.5986E-03
             234             842     50.5219E-03     53.5986E-03
             218             843     55.2709E-03     58.4354E-03
             217             843     55.2709E-03     58.4354E-03
             234             843     55.2709E-03     58.4354E-03
             235             843     55.2709E-03     58.4354E-03
             218             844     60.9800E-03     64.0833E-03
             236             844     60.9800E-03     64.0833E-03
             235             844     60.9800E-03     64.0833E-03
             219             844     60.9800E-03     64.0833E-03
             220             845     69.7504E-03     72.0842E-03
             237             845     69.7504E-03     72.0842E-03
             219             845     69.7504E-03     72.0842E-03
             236             845     69.7504E-03     72.0842E-03
             220             846     80.7206E-03     81.6933E-03
             238             846     80.7206E-03     81.6933E-03
             237             846     80.7206E-03     81.6933E-03
             221             846     80.7206E-03     81.6933E-03
             239             847     5.27569E-03     7.10194E-03
             240             847     5.27569E-03     7.10194E-03
             223             847     5.27569E-03     7.10194E-03
             222             847     5.27569E-03     7.10194E-03
             223             848     7.96697E-03     11.1294E-03
             240             848     7.96697E-03     11.1294E-03
             224             848     7.96697E-03     11.1294E-03
             241             848     7.96697E-03     11.1294E-03
             242             849     11.5741E-03     15.3269E-03
             241             849     11.5741E-03     15.3269E-03
             224             849     11.5741E-03     15.3269E-03
             225             849     11.5741E-03     15.3269E-03
             225             850     15.5165E-03     19.5116E-03
             242             850     15.5165E-03     19.5116E-03
             226             850     15.5165E-03     19.5116E-03
             243             850     15.5165E-03     19.5116E-03
             227             851     19.5734E-03     23.7076E-03
             226             851     19.5734E-03     23.7076E-03
             243             851     19.5734E-03     23.7076E-03
             244             851     19.5734E-03     23.7076E-03
             245             852     23.6983E-03     27.8725E-03
             228             852     23.6983E-03     27.8725E-03
             244             852     23.6983E-03     27.8725E-03
             227             852     23.6983E-03     27.8725E-03
             246             853     27.8479E-03     32.0334E-03
             228             853     27.8479E-03     32.0334E-03
             229             853     27.8479E-03     32.0334E-03
             245             853     27.8479E-03     32.0334E-03
             247             854     31.9917E-03     36.1737E-03
             229             854     31.9917E-03     36.1737E-03
             230             854     31.9917E-03     36.1737E-03
             246             854     31.9917E-03     36.1737E-03
             247             855     36.1330E-03     40.3016E-03
             231             855     36.1330E-03     40.3016E-03
             248             855     36.1330E-03     40.3016E-03
             230             855     36.1330E-03     40.3016E-03
             248             856     40.2573E-03     44.4036E-03
             249             856     40.2573E-03     44.4036E-03
             231             856     40.2573E-03     44.4036E-03
             232             856     40.2573E-03     44.4036E-03
             249             857     44.4438E-03     48.5435E-03
             250             857     44.4438E-03     48.5435E-03
             233             857     44.4438E-03     48.5435E-03
             232             857     44.4438E-03     48.5435E-03
             251             858     48.7347E-03     52.7737E-03
             250             858     48.7347E-03     52.7737E-03
             233             858     48.7347E-03     52.7737E-03
             234             858     48.7347E-03     52.7737E-03
             251             859     53.5644E-03     57.4861E-03
             235             859     53.5644E-03     57.4861E-03
             252             859     53.5644E-03     57.4861E-03
             234             859     53.5644E-03     57.4861E-03
             252             860     59.2974E-03     63.1244E-03
             235             860     59.2974E-03     63.1244E-03
             236             860     59.2974E-03     63.1244E-03
             253             860     59.2974E-03     63.1244E-03
             236             861     67.9469E-03     71.7380E-03
             254             861     67.9469E-03     71.7380E-03
             237             861     67.9469E-03     71.7380E-03
             253             861     67.9469E-03     71.7380E-03
             255             862     83.4521E-03     86.4656E-03
             238             862     83.4521E-03     86.4656E-03
             254             862     83.4521E-03     86.4656E-03
             237             862     83.4521E-03     86.4656E-03
             240             863     11.9574E-03     14.2771E-03
             257             863     11.9574E-03     14.2771E-03
             239             863     11.9574E-03     14.2771E-03
             256             863     11.9574E-03     14.2771E-03
             258             864     15.6168E-03     17.2603E-03
             257             864     15.6168E-03     17.2603E-03
             241             864     15.6168E-03     17.2603E-03
             240             864     15.6168E-03     17.2603E-03
             258             865     19.7205E-03     21.2979E-03
             242             865     19.7205E-03     21.2979E-03
             259             865     19.7205E-03     21.2979E-03
             241             865     19.7205E-03     21.2979E-03
             260             866     24.2317E-03     25.8632E-03
             242             866     24.2317E-03     25.8632E-03
             243             866     24.2317E-03     25.8632E-03
             259             866     24.2317E-03     25.8632E-03
             244             867     28.9914E-03     30.6128E-03
             243             867     28.9914E-03     30.6128E-03
             261             867     28.9914E-03     30.6128E-03
             260             867     28.9914E-03     30.6128E-03
             262             868     33.9040E-03     35.4858E-03
             261             868     33.9040E-03     35.4858E-03
             245             868     33.9040E-03     35.4858E-03
             244             868     33.9040E-03     35.4858E-03
             245             869     38.8760E-03     40.4358E-03
             262             869     38.8760E-03     40.4358E-03
             263             869     38.8760E-03     40.4358E-03
             246             869     38.8760E-03     40.4358E-03
             247             870     43.8790E-03     45.3898E-03
             263             870     43.8790E-03     45.3898E-03
             264             870     43.8790E-03     45.3898E-03
             246             870     43.8790E-03     45.3898E-03
             264             871     48.8591E-03     50.3567E-03
             248             871     48.8591E-03     50.3567E-03
             265             871     48.8591E-03     50.3567E-03
             247             871     48.8591E-03     50.3567E-03
             266             872     53.8169E-03     55.2498E-03
             248             872     53.8169E-03     55.2498E-03
             265             872     53.8169E-03     55.2498E-03
             249             872     53.8169E-03     55.2498E-03
             249             873     58.7186E-03     60.0851E-03
             267             873     58.7186E-03     60.0851E-03
             250             873     58.7186E-03     60.0851E-03
             266             873     58.7186E-03     60.0851E-03
             267             874     63.6161E-03     64.8118E-03
             250             874     63.6161E-03     64.8118E-03
             251             874     63.6161E-03     64.8118E-03
             268             874     63.6161E-03     64.8118E-03
             251             875     68.4172E-03     69.3984E-03
             268             875     68.4172E-03     69.3984E-03
             269             875     68.4172E-03     69.3984E-03
             252             875     68.4172E-03     69.3984E-03
             269             876     73.4033E-03     74.0017E-03
             253             876     73.4033E-03     74.0017E-03
             252             876     73.4033E-03     74.0017E-03
             270             876     73.4033E-03     74.0017E-03
             253             877     78.3805E-03     78.8125E-03
             271             877     78.3805E-03     78.8125E-03
             270             877     78.3805E-03     78.8125E-03
             254             877     78.3805E-03     78.8125E-03
             254             878     85.2662E-03     86.8043E-03
             272             878     85.2662E-03     86.8043E-03
             255             878     85.2662E-03     86.8043E-03
             271             878     85.2662E-03     86.8043E-03
             273             879     18.5808E-03     20.5823E-03
             274             879     18.5808E-03     20.5823E-03
             256             879     18.5808E-03     20.5823E-03
             257             879     18.5808E-03     20.5823E-03
             274             880     22.2980E-03     22.4125E-03
             275             880     22.2980E-03     22.4125E-03
             258             880     22.2980E-03     22.4125E-03
             257             880     22.2980E-03     22.4125E-03
             259             881     27.0423E-03     26.3994E-03
             275             881     27.0423E-03     26.3994E-03
             258             881     27.0423E-03     26.3994E-03
             276             881     27.0423E-03     26.3994E-03
             276             882     32.3181E-03     31.4605E-03
             277             882     32.3181E-03     31.4605E-03
             259             882     32.3181E-03     31.4605E-03
             260             882     32.3181E-03     31.4605E-03
             278             883     37.9315E-03     36.9918E-03
             260             883     37.9315E-03     36.9918E-03
             277             883     37.9315E-03     36.9918E-03
             261             883     37.9315E-03     36.9918E-03
             278             884     43.7885E-03     42.7989E-03
             262             884     43.7885E-03     42.7989E-03
             261             884     43.7885E-03     42.7989E-03
             279             884     43.7885E-03     42.7989E-03
             279             885     49.7676E-03     48.7493E-03
             263             885     49.7676E-03     48.7493E-03
             262             885     49.7676E-03     48.7493E-03
             280             885     49.7676E-03     48.7493E-03
             281             886     55.8321E-03     54.7845E-03
             280             886     55.8321E-03     54.7845E-03
             264             886     55.8321E-03     54.7845E-03
             263             886     55.8321E-03     54.7845E-03
             281             887     61.9125E-03     60.8539E-03
             265             887     61.9125E-03     60.8539E-03
             264             887     61.9125E-03     60.8539E-03
             282             887     61.9125E-03     60.8539E-03
             282             888     68.0149E-03     66.9111E-03
             265             888     68.0149E-03     66.9111E-03
             283             888     68.0149E-03     66.9111E-03
             266             888     68.0149E-03     66.9111E-03
             283             889     74.0437E-03     72.9179E-03
             266             889     74.0437E-03     72.9179E-03
             284             889     74.0437E-03     72.9179E-03
             267             889     74.0437E-03     72.9179E-03
             285             890     79.9947E-03     78.7504E-03
             267             890     79.9947E-03     78.7504E-03
             268             890     79.9947E-03     78.7504E-03
             284             890     79.9947E-03     78.7504E-03
             268             891     85.5845E-03     84.2253E-03
             269             891     85.5845E-03     84.2253E-03
             285             891     85.5845E-03     84.2253E-03
             286             891     85.5845E-03     84.2253E-03
             269             892     90.2585E-03     88.8134E-03
             270             892     90.2585E-03     88.8134E-03
             286             892     90.2585E-03     88.8134E-03
             287             892     90.2585E-03     88.8134E-03
             271             893     93.0740E-03     91.5163E-03
             287             893     93.0740E-03     91.5163E-03
             288             893     93.0740E-03     91.5163E-03
             270             893     93.0740E-03     91.5163E-03
             289             894     92.2782E-03     90.8313E-03
             272             894     92.2782E-03     90.8313E-03
             271             894     92.2782E-03     90.8313E-03
             288             894     92.2782E-03     90.8313E-03
             290             895     15.5379E-03     16.5994E-03
             291             895     15.5379E-03     16.5994E-03
             274             895     15.5379E-03     16.5994E-03
             273             895     15.5379E-03     16.5994E-03
             275             896     18.7792E-03     20.1746E-03
             274             896     18.7792E-03     20.1746E-03
             291             896     18.7792E-03     20.1746E-03
             292             896     18.7792E-03     20.1746E-03
             276             897     23.9971E-03     24.6427E-03
             275             897     23.9971E-03     24.6427E-03
             292             897     23.9971E-03     24.6427E-03
             293             897     23.9971E-03     24.6427E-03
             276             898     29.7572E-03     30.1566E-03
             294             898     29.7572E-03     30.1566E-03
             277             898     29.7572E-03     30.1566E-03
             293             898     29.7572E-03     30.1566E-03
             294             899     35.7495E-03     36.1231E-03
             278             899     35.7495E-03     36.1231E-03
             295             899     35.7495E-03     36.1231E-03
             277             899     35.7495E-03     36.1231E-03
             278             900     41.9190E-03     42.3033E-03
             295             900     41.9190E-03     42.3033E-03
             296             900     41.9190E-03     42.3033E-03
             279             900     41.9190E-03     42.3033E-03
             279             901     48.2002E-03     48.6055E-03
             296             901     48.2002E-03     48.6055E-03
             297             901     48.2002E-03     48.6055E-03
             280             901     48.2002E-03     48.6055E-03
             280             902     54.5674E-03     54.9856E-03
             298             902     54.5674E-03     54.9856E-03
             281             902     54.5674E-03     54.9856E-03
             297             902     54.5674E-03     54.9856E-03
             299             903     61.0110E-03     61.4292E-03
             298             903     61.0110E-03     61.4292E-03
             282             903     61.0110E-03     61.4292E-03
             281             903     61.0110E-03     61.4292E-03
             300             904     67.5092E-03     67.9415E-03
             282             904     67.5092E-03     67.9415E-03
             299             904     67.5092E-03     67.9415E-03
             283             904     67.5092E-03     67.9415E-03
             283             905     74.1011E-03     74.5384E-03
             284             905     74.1011E-03     74.5384E-03
             301             905     74.1011E-03     74.5384E-03
             300             905     74.1011E-03     74.5384E-03
             285             906     80.6934E-03     81.2047E-03
             284             906     80.6934E-03     81.2047E-03
             302             906     80.6934E-03     81.2047E-03
             301             906     80.6934E-03     81.2047E-03
             285             907     87.3402E-03     87.9328E-03
             303             907     87.3402E-03     87.9328E-03
             286             907     87.3402E-03     87.9328E-03
             302             907     87.3402E-03     87.9328E-03
             286             908     93.4971E-03     94.4145E-03
             304             908     93.4971E-03     94.4145E-03
             287             908     93.4971E-03     94.4145E-03
             303             908     93.4971E-03     94.4145E-03
             287             909     97.6787E-03     99.3971E-03
             305             909     97.6787E-03     99.3971E-03
             304             909     97.6787E-03     99.3971E-03
             288             909     97.6787E-03     99.3971E-03
             306             910     100.807E-03     102.220E-03
             288             910     100.807E-03     102.220E-03
             305             910     100.807E-03     102.220E-03
             289             910     100.807E-03     102.220E-03
             307             911     12.1012E-03     12.6402E-03
             308             911     12.1012E-03     12.6402E-03
             290             911     12.1012E-03     12.6402E-03
             291             911     12.1012E-03     12.6402E-03
             291             912     15.9382E-03     17.8427E-03
             309             912     15.9382E-03     17.8427E-03
             292             912     15.9382E-03     17.8427E-03
             308             912     15.9382E-03     17.8427E-03
             309             913     21.3816E-03     23.3754E-03
             292             913     21.3816E-03     23.3754E-03
             293             913     21.3816E-03     23.3754E-03
             310             913     21.3816E-03     23.3754E-03
             294             914     27.5035E-03     29.3410E-03
             311             914     27.5035E-03     29.3410E-03
             310             914     27.5035E-03     29.3410E-03
             293             914     27.5035E-03     29.3410E-03
             311             915     33.8075E-03     35.6535E-03
             294             915     33.8075E-03     35.6535E-03
             312             915     33.8075E-03     35.6535E-03
             295             915     33.8075E-03     35.6535E-03
             296             916     40.2125E-03     42.0926E-03
             295             916     40.2125E-03     42.0926E-03
             313             916     40.2125E-03     42.0926E-03
             312             916     40.2125E-03     42.0926E-03
             297             917     46.7091E-03     48.6211E-03
             313             917     46.7091E-03     48.6211E-03
             314             917     46.7091E-03     48.6211E-03
             296             917     46.7091E-03     48.6211E-03
             297             918     53.2693E-03     55.2016E-03
             315             918     53.2693E-03     55.2016E-03
             298             918     53.2693E-03     55.2016E-03
             314             918     53.2693E-03     55.2016E-03
             316             919     59.8968E-03     61.8449E-03
             315             919     59.8968E-03     61.8449E-03
             298             919     59.8968E-03     61.8449E-03
             299             919     59.8968E-03     61.8449E-03
             317             920     66.5924E-03     68.5623E-03
             316             920     66.5924E-03     68.5623E-03
             300             920     66.5924E-03     68.5623E-03
             299             920     66.5924E-03     68.5623E-03
             300             921     73.3611E-03     75.3836E-03
             301             921     73.3611E-03     75.3836E-03
             318             921     73.3611E-03     75.3836E-03
             317             921     73.3611E-03     75.3836E-03
             319             922     80.2477E-03     82.3993E-03
             301             922     80.2477E-03     82.3993E-03
             318             922     80.2477E-03     82.3993E-03
             302             922     80.2477E-03     82.3993E-03
             302             923     87.1977E-03     89.6149E-03
             303             923     87.1977E-03     89.6149E-03
             319             923     87.1977E-03     89.6149E-03
             320             923     87.1977E-03     89.6149E-03
             321             924     94.6236E-03     97.2558E-03
             303             924     94.6236E-03     97.2558E-03
             304             924     94.6236E-03     97.2558E-03
             320             924     94.6236E-03     97.2558E-03
             304             925     101.933E-03     104.702E-03
             305             925     101.933E-03     104.702E-03
             321             925     101.933E-03     104.702E-03
             322             925     101.933E-03     104.702E-03
             322             926     108.532E-03     111.380E-03
             305             926     108.532E-03     111.380E-03
             323             926     108.532E-03     111.380E-03
             306             926     108.532E-03     111.380E-03
             308             927     8.65037E-03     10.2969E-03
             324             927     8.65037E-03     10.2969E-03
             325             927     8.65037E-03     10.2969E-03
             307             927     8.65037E-03     10.2969E-03
             326             928     13.3746E-03     16.1193E-03
             309             928     13.3746E-03     16.1193E-03
             325             928     13.3746E-03     16.1193E-03
             308             928     13.3746E-03     16.1193E-03
             327             929     19.2773E-03     22.5826E-03
             326             929     19.2773E-03     22.5826E-03
             310             929     19.2773E-03     22.5826E-03
             309             929     19.2773E-03     22.5826E-03
             327             930     25.6076E-03     29.0116E-03
             310             930     25.6076E-03     29.0116E-03
             328             930     25.6076E-03     29.0116E-03
             311             930     25.6076E-03     29.0116E-03
             328             931     32.0955E-03     35.5230E-03
             311             931     32.0955E-03     35.5230E-03
             329             931     32.0955E-03     35.5230E-03
             312             931     32.0955E-03     35.5230E-03
             313             932     38.6445E-03     42.1081E-03
             330             932     38.6445E-03     42.1081E-03
             312             932     38.6445E-03     42.1081E-03
             329             932     38.6445E-03     42.1081E-03
             314             933     45.2307E-03     48.7107E-03
             313             933     45.2307E-03     48.7107E-03
             330             933     45.2307E-03     48.7107E-03
             331             933     45.2307E-03     48.7107E-03
             331             934     51.8505E-03     55.3452E-03
             314             934     51.8505E-03     55.3452E-03
             332             934     51.8505E-03     55.3452E-03
             315             934     51.8505E-03     55.3452E-03
             315             935     58.4907E-03     61.9891E-03
             332             935     58.4907E-03     61.9891E-03
             333             935     58.4907E-03     61.9891E-03
             316             935     58.4907E-03     61.9891E-03
             333             936     65.1627E-03     68.6668E-03
             317             936     65.1627E-03     68.6668E-03
             316             936     65.1627E-03     68.6668E-03
             334             936     65.1627E-03     68.6668E-03
             318             937     71.8476E-03     75.3917E-03
             335             937     71.8476E-03     75.3917E-03
             317             937     71.8476E-03     75.3917E-03
             334             937     71.8476E-03     75.3917E-03
             335             938     78.6283E-03     82.2370E-03
             319             938     78.6283E-03     82.2370E-03
             318             938     78.6283E-03     82.2370E-03
             336             938     78.6283E-03     82.2370E-03
             320             939     85.5974E-03     89.3965E-03
             337             939     85.5974E-03     89.3965E-03
             319             939     85.5974E-03     89.3965E-03
             336             939     85.5974E-03     89.3965E-03
             337             940     93.1626E-03     97.1417E-03
             321             940     93.1626E-03     97.1417E-03
             338             940     93.1626E-03     97.1417E-03
             320             940     93.1626E-03     97.1417E-03
             338             941     103.608E-03     106.966E-03
             321             941     103.608E-03     106.966E-03
             339             941     103.608E-03     106.966E-03
             322             941     103.608E-03     106.966E-03
             339             942     115.594E-03     117.214E-03
             323             942     115.594E-03     117.214E-03
             322             942     115.594E-03     117.214E-03
             340             942     115.594E-03     117.214E-03
             342             943     5.90915E-03     8.89928E-03
             324             943     5.90915E-03     8.89928E-03
             341             943     5.90915E-03     8.89928E-03
             325             943     5.90915E-03     8.89928E-03
             343             944     11.4360E-03     15.7336E-03
             326             944     11.4360E-03     15.7336E-03
             325             944     11.4360E-03     15.7336E-03
             342             944     11.4360E-03     15.7336E-03
             327             945     17.6988E-03     22.4873E-03
             343             945     17.6988E-03     22.4873E-03
             344             945     17.6988E-03     22.4873E-03
             326             945     17.6988E-03     22.4873E-03
             345             946     24.1330E-03     29.1745E-03
             344             946     24.1330E-03     29.1745E-03
             328             946     24.1330E-03     29.1745E-03
             327             946     24.1330E-03     29.1745E-03
             346             947     30.6737E-03     35.7621E-03
             345             947     30.6737E-03     35.7621E-03
             328             947     30.6737E-03     35.7621E-03
             329             947     30.6737E-03     35.7621E-03
             329             948     37.2459E-03     42.3339E-03
             330             948     37.2459E-03     42.3339E-03
             347             948     37.2459E-03     42.3339E-03
             346             948     37.2459E-03     42.3339E-03
             331             949     43.8077E-03     48.8967E-03
             330             949     43.8077E-03     48.8967E-03
             347             949     43.8077E-03     48.8967E-03
             348             949     43.8077E-03     48.8967E-03
             348             950     50.3545E-03     55.4278E-03
             349             950     50.3545E-03     55.4278E-03
             331             950     50.3545E-03     55.4278E-03
             332             950     50.3545E-03     55.4278E-03
             333             951     56.8703E-03     61.9409E-03
             332             951     56.8703E-03     61.9409E-03
             349             951     56.8703E-03     61.9409E-03
             350             951     56.8703E-03     61.9409E-03
             350             952     63.3392E-03     68.3927E-03
             333             952     63.3392E-03     68.3927E-03
             334             952     63.3392E-03     68.3927E-03
             351             952     63.3392E-03     68.3927E-03
             352             953     69.8045E-03     74.8238E-03
             335             953     69.8045E-03     74.8238E-03
             334             953     69.8045E-03     74.8238E-03
             351             953     69.8045E-03     74.8238E-03
             353             954     76.2595E-03     81.2242E-03
             336             954     76.2595E-03     81.2242E-03
             335             954     76.2595E-03     81.2242E-03
             352             954     76.2595E-03     81.2242E-03
             337             955     83.0489E-03     87.8844E-03
             353             955     83.0489E-03     87.8844E-03
             354             955     83.0489E-03     87.8844E-03
             336             955     83.0489E-03     87.8844E-03
             354             956     90.4680E-03     95.1776E-03
             338             956     90.4680E-03     95.1776E-03
             355             956     90.4680E-03     95.1776E-03
             337             956     90.4680E-03     95.1776E-03
             338             957     100.602E-03     105.147E-03
             356             957     100.602E-03     105.147E-03
             339             957     100.602E-03     105.147E-03
             355             957     100.602E-03     105.147E-03
             339             958     117.478E-03     120.936E-03
             357             958     117.478E-03     120.936E-03
             356             958     117.478E-03     120.936E-03
             340             958     117.478E-03     120.936E-03
             341             959     15.5540E-03     18.9035E-03
             359             959     15.5540E-03     18.9035E-03
             342             959     15.5540E-03     18.9035E-03
             358             959     15.5540E-03     18.9035E-03
             343             960     21.3757E-03     23.7771E-03
             342             960     21.3757E-03     23.7771E-03
             359             960     21.3757E-03     23.7771E-03
             360             960     21.3757E-03     23.7771E-03
             360             961     27.4203E-03     29.9238E-03
             361             961     27.4203E-03     29.9238E-03
             343             961     27.4203E-03     29.9238E-03
             344             961     27.4203E-03     29.9238E-03
             362             962     34.0042E-03     36.6336E-03
             345             962     34.0042E-03     36.6336E-03
             361             962     34.0042E-03     36.6336E-03
             344             962     34.0042E-03     36.6336E-03
             346             963     40.9108E-03     43.5684E-03
             363             963     40.9108E-03     43.5684E-03
             362             963     40.9108E-03     43.5684E-03
             345             963     40.9108E-03     43.5684E-03
             346             964     48.0035E-03     50.6385E-03
             347             964     48.0035E-03     50.6385E-03
             363             964     48.0035E-03     50.6385E-03
             364             964     48.0035E-03     50.6385E-03
             365             965     55.1727E-03     57.7746E-03
             347             965     55.1727E-03     57.7746E-03
             364             965     55.1727E-03     57.7746E-03
             348             965     55.1727E-03     57.7746E-03
             366             966     62.3657E-03     64.9240E-03
             348             966     62.3657E-03     64.9240E-03
             365             966     62.3657E-03     64.9240E-03
             349             966     62.3657E-03     64.9240E-03
             349             967     69.4951E-03     72.0307E-03
             367             967     69.4951E-03     72.0307E-03
             366             967     69.4951E-03     72.0307E-03
             350             967     69.4951E-03     72.0307E-03
             368             968     76.5734E-03     79.0187E-03
             350             968     76.5734E-03     79.0187E-03
             351             968     76.5734E-03     79.0187E-03
             367             968     76.5734E-03     79.0187E-03
             369             969     83.4830E-03     85.8430E-03
             368             969     83.4830E-03     85.8430E-03
             352             969     83.4830E-03     85.8430E-03
             351             969     83.4830E-03     85.8430E-03
             352             970     90.2818E-03     92.3548E-03
             369             970     90.2818E-03     92.3548E-03
             353             970     90.2818E-03     92.3548E-03
             370             970     90.2818E-03     92.3548E-03
             370             971     96.8429E-03     98.5703E-03
             371             971     96.8429E-03     98.5703E-03
             354             971     96.8429E-03     98.5703E-03
             353             971     96.8429E-03     98.5703E-03
             371             972     103.434E-03     104.553E-03
             372             972     103.434E-03     104.553E-03
             355             972     103.434E-03     104.553E-03
             354             972     103.434E-03     104.553E-03
             373             973     110.004E-03     110.647E-03
             372             973     110.004E-03     110.647E-03
             356             973     110.004E-03     110.647E-03
             355             973     110.004E-03     110.647E-03
             356             974     118.778E-03     120.720E-03
             374             974     118.778E-03     120.720E-03
             373             974     118.778E-03     120.720E-03
             357             974     118.778E-03     120.720E-03
             359             975     24.3505E-03     27.5728E-03
             358             975     24.3505E-03     27.5728E-03
             376             975     24.3505E-03     27.5728E-03
             375             975     24.3505E-03     27.5728E-03
             360             976     29.3625E-03     30.2785E-03
             376             976     29.3625E-03     30.2785E-03
             359             976     29.3625E-03     30.2785E-03
             377             976     29.3625E-03     30.2785E-03
             377             977     35.7931E-03     35.8334E-03
             361             977     35.7931E-03     35.8334E-03
             378             977     35.7931E-03     35.8334E-03
             360             977     35.7931E-03     35.8334E-03
             378             978     42.9397E-03     42.8149E-03
             361             978     42.9397E-03     42.8149E-03
             379             978     42.9397E-03     42.8149E-03
             362             978     42.9397E-03     42.8149E-03
             379             979     50.5447E-03     50.3988E-03
             363             979     50.5447E-03     50.3988E-03
             380             979     50.5447E-03     50.3988E-03
             362             979     50.5447E-03     50.3988E-03
             380             980     58.4679E-03     58.3024E-03
             381             980     58.4679E-03     58.3024E-03
             363             980     58.4679E-03     58.3024E-03
             364             980     58.4679E-03     58.3024E-03
             364             981     66.5639E-03     66.3773E-03
             382             981     66.5639E-03     66.3773E-03
             365             981     66.5639E-03     66.3773E-03
             381             981     66.5639E-03     66.3773E-03
             366             982     74.7386E-03     74.5360E-03
             365             982     74.7386E-03     74.5360E-03
             383             982     74.7386E-03     74.5360E-03
             382             982     74.7386E-03     74.5360E-03
             366             983     82.9557E-03     82.6988E-03
             384             983     82.9557E-03     82.6988E-03
             367             983     82.9557E-03     82.6988E-03
             383             983     82.9557E-03     82.6988E-03
             385             984     91.1169E-03     90.8171E-03
             384             984     91.1169E-03     90.8171E-03
             367             984     91.1169E-03     90.8171E-03
             368             984     91.1169E-03     90.8171E-03
             386             985     99.2052E-03     98.7633E-03
             368             985     99.2052E-03     98.7633E-03
             385             985     99.2052E-03     98.7633E-03
             369             985     99.2052E-03     98.7633E-03
             387             986     107.035E-03     106.441E-03
             370             986     107.035E-03     106.441E-03
             369             986     107.035E-03     106.441E-03
             386             986     107.035E-03     106.441E-03
             370             987     114.349E-03     113.521E-03
             371             987     114.349E-03     113.521E-03
             387             987     114.349E-03     113.521E-03
             388             987     114.349E-03     113.521E-03
             389             988     120.761E-03     119.621E-03
             371             988     120.761E-03     119.621E-03
             372             988     120.761E-03     119.621E-03
             388             988     120.761E-03     119.621E-03
             372             989     125.218E-03     124.156E-03
             373             989     125.218E-03     124.156E-03
             390             989     125.218E-03     124.156E-03
             389             989     125.218E-03     124.156E-03
             374             990     127.037E-03     125.568E-03
             373             990     127.037E-03     125.568E-03
             391             990     127.037E-03     125.568E-03
             390             990     127.037E-03     125.568E-03
             392             991     20.1845E-03     22.4950E-03
             376             991     20.1845E-03     22.4950E-03
             393             991     20.1845E-03     22.4950E-03
             375             991     20.1845E-03     22.4950E-03
             376             992     24.8134E-03     27.3427E-03
             377             992     24.8134E-03     27.3427E-03
             393             992     24.8134E-03     27.3427E-03
             394             992     24.8134E-03     27.3427E-03
             378             993     32.1005E-03     33.4600E-03
             394             993     32.1005E-03     33.4600E-03
             377             993     32.1005E-03     33.4600E-03
             395             993     32.1005E-03     33.4600E-03
             395             994     40.0396E-03     41.0103E-03
             396             994     40.0396E-03     41.0103E-03
             378             994     40.0396E-03     41.0103E-03
             379             994     40.0396E-03     41.0103E-03
             380             995     48.2776E-03     49.1422E-03
             397             995     48.2776E-03     49.1422E-03
             396             995     48.2776E-03     49.1422E-03
             379             995     48.2776E-03     49.1422E-03
             398             996     56.7264E-03     57.5792E-03
             397             996     56.7264E-03     57.5792E-03
             380             996     56.7264E-03     57.5792E-03
             381             996     56.7264E-03     57.5792E-03
             399             997     65.3019E-03     66.1831E-03
             382             997     65.3019E-03     66.1831E-03
             398             997     65.3019E-03     66.1831E-03
             381             997     65.3019E-03     66.1831E-03
             383             998     73.9989E-03     74.8854E-03
             400             998     73.9989E-03     74.8854E-03
             382             998     73.9989E-03     74.8854E-03
             399             998     73.9989E-03     74.8854E-03
             384             999     82.7621E-03     83.6740E-03
             383             999     82.7621E-03     83.6740E-03
             401             999     82.7621E-03     83.6740E-03
             400             999     82.7621E-03     83.6740E-03
             384            1000     91.6224E-03     92.5274E-03
             385            1000     91.6224E-03     92.5274E-03
             402            1000     91.6224E-03     92.5274E-03
             401            1000     91.6224E-03     92.5274E-03
             386            1001     100.484E-03     101.449E-03
             403            1001     100.484E-03     101.449E-03
             385            1001     100.484E-03     101.449E-03
             402            1001     100.484E-03     101.449E-03
             386            1002     109.375E-03     110.375E-03
             387            1002     109.375E-03     110.375E-03
             404            1002     109.375E-03     110.375E-03
             403            1002     109.375E-03     110.375E-03
             388            1003     117.975E-03     119.190E-03
             404            1003     117.975E-03     119.190E-03
             405            1003     117.975E-03     119.190E-03
             387            1003     117.975E-03     119.190E-03
             389            1004     125.705E-03     127.395E-03
             405            1004     125.705E-03     127.395E-03
             388            1004     125.705E-03     127.395E-03
             406            1004     125.705E-03     127.395E-03
             407            1005     131.835E-03     133.929E-03
             389            1005     131.835E-03     133.929E-03
             390            1005     131.835E-03     133.929E-03
             406            1005     131.835E-03     133.929E-03
             391            1006     136.436E-03     138.469E-03
             408            1006     136.436E-03     138.469E-03
             407            1006     136.436E-03     138.469E-03
             390            1006     136.436E-03     138.469E-03
             410            1007     15.8033E-03     17.1640E-03
             392            1007     15.8033E-03     17.1640E-03
             393            1007     15.8033E-03     17.1640E-03
             409            1007     15.8033E-03     17.1640E-03
             411            1008     21.3721E-03     24.1788E-03
             410            1008     21.3721E-03     24.1788E-03
             393            1008     21.3721E-03     24.1788E-03
             394            1008     21.3721E-03     24.1788E-03
             411            1009     29.0613E-03     31.6943E-03
             395            1009     29.0613E-03     31.6943E-03
             394            1009     29.0613E-03     31.6943E-03
             412            1009     29.0613E-03     31.6943E-03
             413            1010     37.6271E-03     39.7503E-03
             412            1010     37.6271E-03     39.7503E-03
             395            1010     37.6271E-03     39.7503E-03
             396            1010     37.6271E-03     39.7503E-03
             396            1011     46.3496E-03     48.3516E-03
             397            1011     46.3496E-03     48.3516E-03
             414            1011     46.3496E-03     48.3516E-03
             413            1011     46.3496E-03     48.3516E-03
             398            1012     55.1750E-03     57.1657E-03
             397            1012     55.1750E-03     57.1657E-03
             414            1012     55.1750E-03     57.1657E-03
             415            1012     55.1750E-03     57.1657E-03
             415            1013     64.1057E-03     66.1156E-03
             398            1013     64.1057E-03     66.1156E-03
             399            1013     64.1057E-03     66.1156E-03
             416            1013     64.1057E-03     66.1156E-03
             416            1014     73.1160E-03     75.1669E-03
             399            1014     73.1160E-03     75.1669E-03
             400            1014     73.1160E-03     75.1669E-03
             417            1014     73.1160E-03     75.1669E-03
             418            1015     82.2296E-03     84.3202E-03
             400            1015     82.2296E-03     84.3202E-03
             417            1015     82.2296E-03     84.3202E-03
             401            1015     82.2296E-03     84.3202E-03
             401            1016     91.4262E-03     93.5961E-03
             402            1016     91.4262E-03     93.5961E-03
             419            1016     91.4262E-03     93.5961E-03
             418            1016     91.4262E-03     93.5961E-03
             403            1017     100.759E-03     103.052E-03
             402            1017     100.759E-03     103.052E-03
             420            1017     100.759E-03     103.052E-03
             419            1017     100.759E-03     103.052E-03
             421            1018     110.139E-03     112.690E-03
             404            1018     110.139E-03     112.690E-03
             420            1018     110.139E-03     112.690E-03
             403            1018     110.139E-03     112.690E-03
             405            1019     119.715E-03     122.580E-03
             421            1019     119.715E-03     122.580E-03
             404            1019     119.715E-03     122.580E-03
             422            1019     119.715E-03     122.580E-03
             405            1020     129.014E-03     132.364E-03
             423            1020     129.014E-03     132.364E-03
             422            1020     129.014E-03     132.364E-03
             406            1020     129.014E-03     132.364E-03
             423            1021     137.239E-03     141.032E-03
             406            1021     137.239E-03     141.032E-03
             407            1021     137.239E-03     141.032E-03
             424            1021     137.239E-03     141.032E-03
             408            1022     144.996E-03     147.734E-03
             424            1022     144.996E-03     147.734E-03
             425            1022     144.996E-03     147.734E-03
             407            1022     144.996E-03     147.734E-03
             410            1023     11.5335E-03     13.8758E-03
             409            1023     11.5335E-03     13.8758E-03
             426            1023     11.5335E-03     13.8758E-03
             427            1023     11.5335E-03     13.8758E-03
             427            1024     18.3771E-03     21.7809E-03
             410            1024     18.3771E-03     21.7809E-03
             428            1024     18.3771E-03     21.7809E-03
             411            1024     18.3771E-03     21.7809E-03
             428            1025     26.8537E-03     30.3096E-03
             412            1025     26.8537E-03     30.3096E-03
             429            1025     26.8537E-03     30.3096E-03
             411            1025     26.8537E-03     30.3096E-03
             412            1026     35.7094E-03     38.9883E-03
             413            1026     35.7094E-03     38.9883E-03
             430            1026     35.7094E-03     38.9883E-03
             429            1026     35.7094E-03     38.9883E-03
             431            1027     44.6983E-03     47.8879E-03
             414            1027     44.6983E-03     47.8879E-03
             413            1027     44.6983E-03     47.8879E-03
             430            1027     44.6983E-03     47.8879E-03
             415            1028     53.7315E-03     56.9165E-03
             431            1028     53.7315E-03     56.9165E-03
             432            1028     53.7315E-03     56.9165E-03
             414            1028     53.7315E-03     56.9165E-03
             432            1029     62.8127E-03     66.0182E-03
             416            1029     62.8127E-03     66.0182E-03
             433            1029     62.8127E-03     66.0182E-03
             415            1029     62.8127E-03     66.0182E-03
             416            1030     71.9455E-03     75.1855E-03
             433            1030     71.9455E-03     75.1855E-03
             417            1030     71.9455E-03     75.1855E-03
             434            1030     71.9455E-03     75.1855E-03
             434            1031     81.1426E-03     84.4208E-03
             417            1031     81.1426E-03     84.4208E-03
             418            1031     81.1426E-03     84.4208E-03
             435            1031     81.1426E-03     84.4208E-03
             435            1032     90.4082E-03     93.7734E-03
             418            1032     90.4082E-03     93.7734E-03
             436            1032     90.4082E-03     93.7734E-03
             419            1032     90.4082E-03     93.7734E-03
             437            1033     99.7800E-03     103.273E-03
             419            1033     99.7800E-03     103.273E-03
             420            1033     99.7800E-03     103.273E-03
             436            1033     99.7800E-03     103.273E-03
             438            1034     109.345E-03     113.097E-03
             420            1034     109.345E-03     113.097E-03
             437            1034     109.345E-03     113.097E-03
             421            1034     109.345E-03     113.097E-03
             438            1035     119.158E-03     123.257E-03
             422            1035     119.158E-03     123.257E-03
             421            1035     119.158E-03     123.257E-03
             439            1035     119.158E-03     123.257E-03
             423            1036     130.024E-03     134.199E-03
             439            1036     130.024E-03     134.199E-03
             440            1036     130.024E-03     134.199E-03
             422            1036     130.024E-03     134.199E-03
             423            1037     141.492E-03     145.411E-03
             441            1037     141.492E-03     145.411E-03
             424            1037     141.492E-03     145.411E-03
             440            1037     141.492E-03     145.411E-03
             424            1038     151.964E-03     155.502E-03
             442            1038     151.964E-03     155.502E-03
             441            1038     151.964E-03     155.502E-03
             425            1038     151.964E-03     155.502E-03
             443            1039     8.10976E-03     12.1841E-03
             427            1039     8.10976E-03     12.1841E-03
             426            1039     8.10976E-03     12.1841E-03
             444            1039     8.10976E-03     12.1841E-03
             428            1040     16.5032E-03     20.7011E-03
             427            1040     16.5032E-03     20.7011E-03
             444            1040     16.5032E-03     20.7011E-03
             445            1040     16.5032E-03     20.7011E-03
             446            1041     25.3960E-03     29.6033E-03
             429            1041     25.3960E-03     29.6033E-03
             428            1041     25.3960E-03     29.6033E-03
             445            1041     25.3960E-03     29.6033E-03
             430            1042     34.3172E-03     38.7167E-03
             447            1042     34.3172E-03     38.7167E-03
             429            1042     34.3172E-03     38.7167E-03
             446            1042     34.3172E-03     38.7167E-03
             447            1043     43.3352E-03     47.7419E-03
             431            1043     43.3352E-03     47.7419E-03
             430            1043     43.3352E-03     47.7419E-03
             448            1043     43.3352E-03     47.7419E-03
             448            1044     52.3784E-03     56.8023E-03
             449            1044     52.3784E-03     56.8023E-03
             431            1044     52.3784E-03     56.8023E-03
             432            1044     52.3784E-03     56.8023E-03
             450            1045     61.4238E-03     65.8681E-03
             433            1045     61.4238E-03     65.8681E-03
             432            1045     61.4238E-03     65.8681E-03
             449            1045     61.4238E-03     65.8681E-03
             451            1046     70.4897E-03     74.9365E-03
             434            1046     70.4897E-03     74.9365E-03
             450            1046     70.4897E-03     74.9365E-03
             433            1046     70.4897E-03     74.9365E-03
             452            1047     79.5496E-03     84.0180E-03
             434            1047     79.5496E-03     84.0180E-03
             451            1047     79.5496E-03     84.0180E-03
             435            1047     79.5496E-03     84.0180E-03
             435            1048     88.6547E-03     93.1259E-03
             452            1048     88.6547E-03     93.1259E-03
             453            1048     88.6547E-03     93.1259E-03
             436            1048     88.6547E-03     93.1259E-03
             436            1049     97.7874E-03     102.337E-03
             453            1049     97.7874E-03     102.337E-03
             454            1049     97.7874E-03     102.337E-03
             437            1049     97.7874E-03     102.337E-03
             437            1050     107.137E-03     111.749E-03
             454            1050     107.137E-03     111.749E-03
             455            1050     107.137E-03     111.749E-03
             438            1050     107.137E-03     111.749E-03
             455            1051     116.915E-03     121.705E-03
             456            1051     116.915E-03     121.705E-03
             439            1051     116.915E-03     121.705E-03
             438            1051     116.915E-03     121.705E-03
             440            1052     127.780E-03     132.649E-03
             456            1052     127.780E-03     132.649E-03
             457            1052     127.780E-03     132.649E-03
             439            1052     127.780E-03     132.649E-03
             458            1053     142.296E-03     146.254E-03
             440            1053     142.296E-03     146.254E-03
             441            1053     142.296E-03     146.254E-03
             457            1053     142.296E-03     146.254E-03
             442            1054     158.328E-03     160.503E-03
             458            1054     158.328E-03     160.503E-03
             459            1054     158.328E-03     160.503E-03
             441            1054     158.328E-03     160.503E-03
             461            1055     7.95485E-03     12.3667E-03
             444            1055     7.95485E-03     12.3667E-03
             443            1055     7.95485E-03     12.3667E-03
             460            1055     7.95485E-03     12.3667E-03
             445            1056     16.3039E-03     20.8582E-03
             462            1056     16.3039E-03     20.8582E-03
             461            1056     16.3039E-03     20.8582E-03
             444            1056     16.3039E-03     20.8582E-03
             462            1057     24.7633E-03     30.0037E-03
             445            1057     24.7633E-03     30.0037E-03
             463            1057     24.7633E-03     30.0037E-03
             446            1057     24.7633E-03     30.0037E-03
             463            1058     33.5205E-03     39.0305E-03
             464            1058     33.5205E-03     39.0305E-03
             446            1058     33.5205E-03     39.0305E-03
             447            1058     33.5205E-03     39.0305E-03
             465            1059     42.3432E-03     48.0126E-03
             447            1059     42.3432E-03     48.0126E-03
             464            1059     42.3432E-03     48.0126E-03
             448            1059     42.3432E-03     48.0126E-03
             466            1060     51.2076E-03     56.9095E-03
             449            1060     51.2076E-03     56.9095E-03
             465            1060     51.2076E-03     56.9095E-03
             448            1060     51.2076E-03     56.9095E-03
             467            1061     60.0706E-03     65.7701E-03
             466            1061     60.0706E-03     65.7701E-03
             449            1061     60.0706E-03     65.7701E-03
             450            1061     60.0706E-03     65.7701E-03
             468            1062     68.8865E-03     74.5732E-03
             451            1062     68.8865E-03     74.5732E-03
             467            1062     68.8865E-03     74.5732E-03
             450            1062     68.8865E-03     74.5732E-03
             452            1063     77.6770E-03     83.3239E-03
             469            1063     77.6770E-03     83.3239E-03
             451            1063     77.6770E-03     83.3239E-03
             468            1063     77.6770E-03     83.3239E-03
             469            1064     86.4068E-03     92.0075E-03
             453            1064     86.4068E-03     92.0075E-03
             470            1064     86.4068E-03     92.0075E-03
             452            1064     86.4068E-03     92.0075E-03
             471            1065     95.1945E-03     100.680E-03
             454            1065     95.1945E-03     100.680E-03
             453            1065     95.1945E-03     100.680E-03
             470            1065     95.1945E-03     100.680E-03
             455            1066     104.062E-03     109.404E-03
             472            1066     104.062E-03     109.404E-03
             471            1066     104.062E-03     109.404E-03
             454            1066     104.062E-03     109.404E-03
             473            1067     113.513E-03     118.608E-03
             456            1067     113.513E-03     118.608E-03
             455            1067     113.513E-03     118.608E-03
             472            1067     113.513E-03     118.608E-03
             474            1068     123.908E-03     128.753E-03
             457            1068     123.908E-03     128.753E-03
             473            1068     123.908E-03     128.753E-03
             456            1068     123.908E-03     128.753E-03
             457            1069     137.556E-03     142.336E-03
             458            1069     137.556E-03     142.336E-03
             475            1069     137.556E-03     142.336E-03
             474            1069     137.556E-03     142.336E-03
             475            1070     158.859E-03     162.404E-03
             476            1070     158.859E-03     162.404E-03
             459            1070     158.859E-03     162.404E-03
             458            1070     158.859E-03     162.404E-03
             478            1071     18.6668E-03     21.8852E-03
             477            1071     18.6668E-03     21.8852E-03
             460            1071     18.6668E-03     21.8852E-03
             461            1071     18.6668E-03     21.8852E-03
             478            1072     26.0998E-03     28.4642E-03
             479            1072     26.0998E-03     28.4642E-03
             462            1072     26.0998E-03     28.4642E-03
             461            1072     26.0998E-03     28.4642E-03
             462            1073     34.2441E-03     36.9222E-03
             479            1073     34.2441E-03     36.9222E-03
             463            1073     34.2441E-03     36.9222E-03
             480            1073     34.2441E-03     36.9222E-03
             481            1074     43.1224E-03     46.0538E-03
             463            1074     43.1224E-03     46.0538E-03
             480            1074     43.1224E-03     46.0538E-03
             464            1074     43.1224E-03     46.0538E-03
             464            1075     52.3924E-03     55.4107E-03
             482            1075     52.3924E-03     55.4107E-03
             465            1075     52.3924E-03     55.4107E-03
             481            1075     52.3924E-03     55.4107E-03
             465            1076     61.8768E-03     64.8765E-03
             483            1076     61.8768E-03     64.8765E-03
             482            1076     61.8768E-03     64.8765E-03
             466            1076     61.8768E-03     64.8765E-03
             467            1077     71.4193E-03     74.4148E-03
             483            1077     71.4193E-03     74.4148E-03
             484            1077     71.4193E-03     74.4148E-03
             466            1077     71.4193E-03     74.4148E-03
             468            1078     80.9809E-03     83.9189E-03
             484            1078     80.9809E-03     83.9189E-03
             467            1078     80.9809E-03     83.9189E-03
             485            1078     80.9809E-03     83.9189E-03
             468            1079     90.4649E-03     93.3989E-03
             486            1079     90.4649E-03     93.3989E-03
             485            1079     90.4649E-03     93.3989E-03
             469            1079     90.4649E-03     93.3989E-03
             486            1080     99.8998E-03     102.728E-03
             470            1080     99.8998E-03     102.728E-03
             487            1080     99.8998E-03     102.728E-03
             469            1080     99.8998E-03     102.728E-03
             471            1081     109.199E-03     111.921E-03
             488            1081     109.199E-03     111.921E-03
             487            1081     109.199E-03     111.921E-03
             470            1081     109.199E-03     111.921E-03
             472            1082     118.493E-03     120.887E-03
             488            1082     118.493E-03     120.887E-03
             471            1082     118.493E-03     120.887E-03
             489            1082     118.493E-03     120.887E-03
             473            1083     127.592E-03     129.578E-03
             489            1083     127.592E-03     129.578E-03
             472            1083     127.592E-03     129.578E-03
             490            1083     127.592E-03     129.578E-03
             473            1084     136.987E-03     138.241E-03
             474            1084     136.987E-03     138.241E-03
             491            1084     136.987E-03     138.241E-03
             490            1084     136.987E-03     138.241E-03
             474            1085     146.330E-03     147.144E-03
             475            1085     146.330E-03     147.144E-03
             491            1085     146.330E-03     147.144E-03
             492            1085     146.330E-03     147.144E-03
             476            1086     158.542E-03     161.175E-03
             493            1086     158.542E-03     161.175E-03
             492            1086     158.542E-03     161.175E-03
             475            1086     158.542E-03     161.175E-03
             495            1087     25.4527E-03     29.0188E-03
             478            1087     25.4527E-03     29.0188E-03
             494            1087     25.4527E-03     29.0188E-03
             477            1087     25.4527E-03     29.0188E-03
             478            1088     32.5830E-03     33.6754E-03
             496            1088     32.5830E-03     33.6754E-03
             495            1088     32.5830E-03     33.6754E-03
             479            1088     32.5830E-03     33.6754E-03
             497            1089     41.4539E-03     41.9027E-03
             496            1089     41.4539E-03     41.9027E-03
             480            1089     41.4539E-03     41.9027E-03
             479            1089     41.4539E-03     41.9027E-03
             480            1090     51.1740E-03     51.5426E-03
             497            1090     51.1740E-03     51.5426E-03
             498            1090     51.1740E-03     51.5426E-03
             481            1090     51.1740E-03     51.5426E-03
             481            1091     61.3715E-03     61.7249E-03
             482            1091     61.3715E-03     61.7249E-03
             499            1091     61.3715E-03     61.7249E-03
             498            1091     61.3715E-03     61.7249E-03
             500            1092     71.8742E-03     72.2198E-03
             482            1092     71.8742E-03     72.2198E-03
             499            1092     71.8742E-03     72.2198E-03
             483            1092     71.8742E-03     72.2198E-03
             500            1093     82.5101E-03     82.8552E-03
             484            1093     82.5101E-03     82.8552E-03
             483            1093     82.5101E-03     82.8552E-03
             501            1093     82.5101E-03     82.8552E-03
             485            1094     93.2327E-03     93.5618E-03
             502            1094     93.2327E-03     93.5618E-03
             484            1094     93.2327E-03     93.5618E-03
             501            1094     93.2327E-03     93.5618E-03
             502            1095     103.947E-03     104.282E-03
             486            1095     103.947E-03     104.282E-03
             503            1095     103.947E-03     104.282E-03
             485            1095     103.947E-03     104.282E-03
             486            1096     114.665E-03     114.950E-03
             504            1096     114.665E-03     114.950E-03
             503            1096     114.665E-03     114.950E-03
             487            1096     114.665E-03     114.950E-03
             504            1097     125.277E-03     125.534E-03
             488            1097     125.277E-03     125.534E-03
             505            1097     125.277E-03     125.534E-03
             487            1097     125.277E-03     125.534E-03
             505            1098     135.787E-03     135.880E-03
             506            1098     135.787E-03     135.880E-03
             489            1098     135.787E-03     135.880E-03
             488            1098     135.787E-03     135.880E-03
             507            1099     145.959E-03     145.855E-03
             506            1099     145.959E-03     145.855E-03
             490            1099     145.959E-03     145.855E-03
             489            1099     145.959E-03     145.855E-03
             507            1100     155.160E-03     154.911E-03
             508            1100     155.160E-03     154.911E-03
             491            1100     155.160E-03     154.911E-03
             490            1100     155.160E-03     154.911E-03
             491            1101     162.843E-03     162.380E-03
             492            1101     162.843E-03     162.380E-03
             508            1101     162.843E-03     162.380E-03
             509            1101     162.843E-03     162.380E-03
             493            1102     167.559E-03     166.805E-03
             492            1102     167.559E-03     166.805E-03
             510            1102     167.559E-03     166.805E-03
             509            1102     167.559E-03     166.805E-03
             494            1103     20.0809E-03     23.0388E-03
             495            1103     20.0809E-03     23.0388E-03
             511            1103     20.0809E-03     23.0388E-03
             512            1103     20.0809E-03     23.0388E-03
             513            1104     27.2175E-03     30.4284E-03
             512            1104     27.2175E-03     30.4284E-03
             495            1104     27.2175E-03     30.4284E-03
             496            1104     27.2175E-03     30.4284E-03
             514            1105     37.2778E-03     39.3541E-03
             497            1105     37.2778E-03     39.3541E-03
             496            1105     37.2778E-03     39.3541E-03
             513            1105     37.2778E-03     39.3541E-03
             497            1106     47.8960E-03     49.6393E-03
             498            1106     47.8960E-03     49.6393E-03
             514            1106     47.8960E-03     49.6393E-03
             515            1106     47.8960E-03     49.6393E-03
             516            1107     58.7199E-03     60.4419E-03
             499            1107     58.7199E-03     60.4419E-03
             498            1107     58.7199E-03     60.4419E-03
             515            1107     58.7199E-03     60.4419E-03
             517            1108     69.7084E-03     71.4704E-03
             516            1108     69.7084E-03     71.4704E-03
             500            1108     69.7084E-03     71.4704E-03
             499            1108     69.7084E-03     71.4704E-03
             500            1109     80.8070E-03     82.6074E-03
             518            1109     80.8070E-03     82.6074E-03
             501            1109     80.8070E-03     82.6074E-03
             517            1109     80.8070E-03     82.6074E-03
             519            1110     91.9914E-03     93.8195E-03
             501            1110     91.9914E-03     93.8195E-03
             518            1110     91.9914E-03     93.8195E-03
             502            1110     91.9914E-03     93.8195E-03
             520            1111     103.259E-03     105.091E-03
             503            1111     103.259E-03     105.091E-03
             502            1111     103.259E-03     105.091E-03
             519            1111     103.259E-03     105.091E-03
             503            1112     114.587E-03     116.444E-03
             520            1112     114.587E-03     116.444E-03
             504            1112     114.587E-03     116.444E-03
             521            1112     114.587E-03     116.444E-03
             522            1113     126.031E-03     127.911E-03
             504            1113     126.031E-03     127.911E-03
             521            1113     126.031E-03     127.911E-03
             505            1113     126.031E-03     127.911E-03
             522            1114     137.495E-03     139.506E-03
             505            1114     137.495E-03     139.506E-03
             506            1114     137.495E-03     139.506E-03
             523            1114     137.495E-03     139.506E-03
             524            1115     149.125E-03     151.315E-03
             523            1115     149.125E-03     151.315E-03
             507            1115     149.125E-03     151.315E-03
             506            1115     149.125E-03     151.315E-03
             525            1116     160.385E-03     163.075E-03
             507            1116     160.385E-03     163.075E-03
             508            1116     160.385E-03     163.075E-03
             524            1116     160.385E-03     163.075E-03
             509            1117     170.132E-03     173.680E-03
             525            1117     170.132E-03     173.680E-03
             508            1117     170.132E-03     173.680E-03
             526            1117     170.132E-03     173.680E-03
             510            1118     178.413E-03     180.997E-03
             527            1118     178.413E-03     180.997E-03
             509            1118     178.413E-03     180.997E-03
             526            1118     178.413E-03     180.997E-03
             528            1119     14.6061E-03     17.4760E-03
             511            1119     14.6061E-03     17.4760E-03
             529            1119     14.6061E-03     17.4760E-03
             512            1119     14.6061E-03     17.4760E-03
             529            1120     23.3057E-03     27.6379E-03
             513            1120     23.3057E-03     27.6379E-03
             512            1120     23.3057E-03     27.6379E-03
             530            1120     23.3057E-03     27.6379E-03
             513            1121     34.1073E-03     37.7803E-03
             514            1121     34.1073E-03     37.7803E-03
             530            1121     34.1073E-03     37.7803E-03
             531            1121     34.1073E-03     37.7803E-03
             515            1122     45.3367E-03     48.6030E-03
             514            1122     45.3367E-03     48.6030E-03
             532            1122     45.3367E-03     48.6030E-03
             531            1122     45.3367E-03     48.6030E-03
             533            1123     56.5858E-03     59.8420E-03
             516            1123     56.5858E-03     59.8420E-03
             532            1123     56.5858E-03     59.8420E-03
             515            1123     56.5858E-03     59.8420E-03
             517            1124     67.8889E-03     71.1783E-03
             533            1124     67.8889E-03     71.1783E-03
             516            1124     67.8889E-03     71.1783E-03
             534            1124     67.8889E-03     71.1783E-03
             517            1125     79.2669E-03     82.6019E-03
             518            1125     79.2669E-03     82.6019E-03
             534            1125     79.2669E-03     82.6019E-03
             535            1125     79.2669E-03     82.6019E-03
             535            1126     90.7077E-03     94.0676E-03
             536            1126     90.7077E-03     94.0676E-03
             518            1126     90.7077E-03     94.0676E-03
             519            1126     90.7077E-03     94.0676E-03
             536            1127     102.224E-03     105.607E-03
             537            1127     102.224E-03     105.607E-03
             519            1127     102.224E-03     105.607E-03
             520            1127     102.224E-03     105.607E-03
             520            1128     113.832E-03     117.246E-03
             537            1128     113.832E-03     117.246E-03
             521            1128     113.832E-03     117.246E-03
             538            1128     113.832E-03     117.246E-03
             538            1129     125.533E-03     129.041E-03
             522            1129     125.533E-03     129.041E-03
             539            1129     125.533E-03     129.041E-03
             521            1129     125.533E-03     129.041E-03
             522            1130     137.431E-03     141.153E-03
             539            1130     137.431E-03     141.153E-03
             523            1130     137.431E-03     141.153E-03
             540            1130     137.431E-03     141.153E-03
             540            1131     149.436E-03     153.630E-03
             541            1131     149.436E-03     153.630E-03
             524            1131     149.436E-03     153.630E-03
             523            1131     149.436E-03     153.630E-03
             524            1132     162.377E-03     166.911E-03
             541            1132     162.377E-03     166.911E-03
             525            1132     162.377E-03     166.911E-03
             542            1132     162.377E-03     166.911E-03
             526            1133     175.332E-03     180.063E-03
             525            1133     175.332E-03     180.063E-03
             543            1133     175.332E-03     180.063E-03
             542            1133     175.332E-03     180.063E-03
             527            1134     186.418E-03     191.378E-03
             543            1134     186.418E-03     191.378E-03
             544            1134     186.418E-03     191.378E-03
             526            1134     186.418E-03     191.378E-03
             546            1135     10.0880E-03     15.6696E-03
             528            1135     10.0880E-03     15.6696E-03
             545            1135     10.0880E-03     15.6696E-03
             529            1135     10.0880E-03     15.6696E-03
             529            1136     20.9965E-03     25.8560E-03
             546            1136     20.9965E-03     25.8560E-03
             530            1136     20.9965E-03     25.8560E-03
             547            1136     20.9965E-03     25.8560E-03
             531            1137     32.2116E-03     37.1519E-03
             530            1137     32.2116E-03     37.1519E-03
             548            1137     32.2116E-03     37.1519E-03
             547            1137     32.2116E-03     37.1519E-03
             548            1138     43.5669E-03     48.4465E-03
             549            1138     43.5669E-03     48.4465E-03
             531            1138     43.5669E-03     48.4465E-03
             532            1138     43.5669E-03     48.4465E-03
             532            1139     54.9636E-03     59.8248E-03
             549            1139     54.9636E-03     59.8248E-03
             533            1139     54.9636E-03     59.8248E-03
             550            1139     54.9636E-03     59.8248E-03
             551            1140     66.3691E-03     71.2710E-03
             533            1140     66.3691E-03     71.2710E-03
             550            1140     66.3691E-03     71.2710E-03
             534            1140     66.3691E-03     71.2710E-03
             552            1141     77.7940E-03     82.7137E-03
             551            1141     77.7940E-03     82.7137E-03
             535            1141     77.7940E-03     82.7137E-03
             534            1141     77.7940E-03     82.7137E-03
             553            1142     89.2438E-03     94.1828E-03
             552            1142     89.2438E-03     94.1828E-03
             535            1142     89.2438E-03     94.1828E-03
             536            1142     89.2438E-03     94.1828E-03
             536            1143     100.716E-03     105.656E-03
             553            1143     100.716E-03     105.656E-03
             554            1143     100.716E-03     105.656E-03
             537            1143     100.716E-03     105.656E-03
             537            1144     112.223E-03     117.174E-03
             555            1144     112.223E-03     117.174E-03
             538            1144     112.223E-03     117.174E-03
             554            1144     112.223E-03     117.174E-03
             539            1145     123.764E-03     128.769E-03
             555            1145     123.764E-03     128.769E-03
             538            1145     123.764E-03     128.769E-03
             556            1145     123.764E-03     128.769E-03
             556            1146     135.419E-03     140.544E-03
             539            1146     135.419E-03     140.544E-03
             557            1146     135.419E-03     140.544E-03
             540            1146     135.419E-03     140.544E-03
             541            1147     147.374E-03     152.784E-03
             557            1147     147.374E-03     152.784E-03
             540            1147     147.374E-03     152.784E-03
             558            1147     147.374E-03     152.784E-03
             558            1148     160.048E-03     165.809E-03
             559            1148     160.048E-03     165.809E-03
             541            1148     160.048E-03     165.809E-03
             542            1148     160.048E-03     165.809E-03
             559            1149     176.064E-03     181.255E-03
             543            1149     176.064E-03     181.255E-03
             560            1149     176.064E-03     181.255E-03
             542            1149     176.064E-03     181.255E-03
             560            1150     193.249E-03     196.032E-03
             544            1150     193.249E-03     196.032E-03
             543            1150     193.249E-03     196.032E-03
             561            1150     193.249E-03     196.032E-03
             546            1151     10.1290E-03     15.7446E-03
             545            1151     10.1290E-03     15.7446E-03
             563            1151     10.1290E-03     15.7446E-03
             562            1151     10.1290E-03     15.7446E-03
             563            1152     20.7457E-03     26.2960E-03
             564            1152     20.7457E-03     26.2960E-03
             547            1152     20.7457E-03     26.2960E-03
             546            1152     20.7457E-03     26.2960E-03
             547            1153     31.5955E-03     37.7489E-03
             564            1153     31.5955E-03     37.7489E-03
             565            1153     31.5955E-03     37.7489E-03
             548            1153     31.5955E-03     37.7489E-03
             566            1154     42.6949E-03     49.1667E-03
             549            1154     42.6949E-03     49.1667E-03
             565            1154     42.6949E-03     49.1667E-03
             548            1154     42.6949E-03     49.1667E-03
             567            1155     53.9333E-03     60.4616E-03
             566            1155     53.9333E-03     60.4616E-03
             550            1155     53.9333E-03     60.4616E-03
             549            1155     53.9333E-03     60.4616E-03
             568            1156     65.2132E-03     71.7452E-03
             567            1156     65.2132E-03     71.7452E-03
             550            1156     65.2132E-03     71.7452E-03
             551            1156     65.2132E-03     71.7452E-03
             551            1157     76.4682E-03     83.0042E-03
             568            1157     76.4682E-03     83.0042E-03
             569            1157     76.4682E-03     83.0042E-03
             552            1157     76.4682E-03     83.0042E-03
             552            1158     87.6959E-03     94.2119E-03
             553            1158     87.6959E-03     94.2119E-03
             570            1158     87.6959E-03     94.2119E-03
             569            1158     87.6959E-03     94.2119E-03
             570            1159     98.8613E-03     105.379E-03
             571            1159     98.8613E-03     105.379E-03
             553            1159     98.8613E-03     105.379E-03
             554            1159     98.8613E-03     105.379E-03
             571            1160     109.955E-03     116.442E-03
             572            1160     109.955E-03     116.442E-03
             554            1160     109.955E-03     116.442E-03
             555            1160     109.955E-03     116.442E-03
             556            1161     121.013E-03     127.451E-03
             572            1161     121.013E-03     127.451E-03
             555            1161     121.013E-03     127.451E-03
             573            1161     121.013E-03     127.451E-03
             574            1162     132.033E-03     138.364E-03
             556            1162     132.033E-03     138.364E-03
             573            1162     132.033E-03     138.364E-03
             557            1162     132.033E-03     138.364E-03
             575            1163     143.414E-03     149.526E-03
             557            1163     143.414E-03     149.526E-03
             558            1163     143.414E-03     149.526E-03
             574            1163     143.414E-03     149.526E-03
             576            1164     155.368E-03     161.286E-03
             559            1164     155.368E-03     161.286E-03
             558            1164     155.368E-03     161.286E-03
             575            1164     155.368E-03     161.286E-03
             577            1165     170.374E-03     176.019E-03
             576            1165     170.374E-03     176.019E-03
             559            1165     170.374E-03     176.019E-03
             560            1165     170.374E-03     176.019E-03
             560            1166     192.836E-03     197.005E-03
             561            1166     192.836E-03     197.005E-03
             578            1166     192.836E-03     197.005E-03
             577            1166     192.836E-03     197.005E-03
             579            1167     11.0785E-03     14.9829E-03
             563            1167     11.0785E-03     14.9829E-03
             562            1167     11.0785E-03     14.9829E-03
             580            1167     11.0785E-03     14.9829E-03
             564            1168     21.6993E-03     26.4462E-03
             580            1168     21.6993E-03     26.4462E-03
             563            1168     21.6993E-03     26.4462E-03
             581            1168     21.6993E-03     26.4462E-03
             581            1169     32.8853E-03     38.1074E-03
             582            1169     32.8853E-03     38.1074E-03
             565            1169     32.8853E-03     38.1074E-03
             564            1169     32.8853E-03     38.1074E-03
             583            1170     44.3356E-03     49.7422E-03
             566            1170     44.3356E-03     49.7422E-03
             582            1170     44.3356E-03     49.7422E-03
             565            1170     44.3356E-03     49.7422E-03
             584            1171     55.8658E-03     61.3457E-03
             566            1171     55.8658E-03     61.3457E-03
             567            1171     55.8658E-03     61.3457E-03
             583            1171     55.8658E-03     61.3457E-03
             568            1172     67.4379E-03     72.9027E-03
             584            1172     67.4379E-03     72.9027E-03
             567            1172     67.4379E-03     72.9027E-03
             585            1172     67.4379E-03     72.9027E-03
             585            1173     78.9889E-03     84.4529E-03
             586            1173     78.9889E-03     84.4529E-03
             568            1173     78.9889E-03     84.4529E-03
             569            1173     78.9889E-03     84.4529E-03
             569            1174     90.5197E-03     95.9569E-03
             586            1174     90.5197E-03     95.9569E-03
             570            1174     90.5197E-03     95.9569E-03
             587            1174     90.5197E-03     95.9569E-03
             570            1175     101.975E-03     107.428E-03
             588            1175     101.975E-03     107.428E-03
             587            1175     101.975E-03     107.428E-03
             571            1175     101.975E-03     107.428E-03
             571            1176     113.402E-03     118.810E-03
             589            1176     113.402E-03     118.810E-03
             572            1176     113.402E-03     118.810E-03
             588            1176     113.402E-03     118.810E-03
             573            1177     124.727E-03     130.119E-03
             589            1177     124.727E-03     130.119E-03
             572            1177     124.727E-03     130.119E-03
             590            1177     124.727E-03     130.119E-03
             590            1178     136.107E-03     141.325E-03
             573            1178     136.107E-03     141.325E-03
             574            1178     136.107E-03     141.325E-03
             591            1178     136.107E-03     141.325E-03
             575            1179     147.482E-03     152.513E-03
             592            1179     147.482E-03     152.513E-03
             574            1179     147.482E-03     152.513E-03
             591            1179     147.482E-03     152.513E-03
             593            1180     159.453E-03     164.058E-03
             575            1180     159.453E-03     164.058E-03
             592            1180     159.453E-03     164.058E-03
             576            1180     159.453E-03     164.058E-03
             576            1181     172.087E-03     176.556E-03
             594            1181     172.087E-03     176.556E-03
             577            1181     172.087E-03     176.556E-03
             593            1181     172.087E-03     176.556E-03
             577            1182     189.460E-03     195.549E-03
             578            1182     189.460E-03     195.549E-03
             595            1182     189.460E-03     195.549E-03
             594            1182     189.460E-03     195.549E-03
             596            1183     11.9702E-15     11.2942E-15
             614            1183     11.9702E-15     11.2942E-15
             597            1183     11.9702E-15     11.2942E-15
             613            1183     11.9702E-15     11.2942E-15
             598            1184     9.14400E-15     10.8953E-15
             614            1184     9.14400E-15     10.8953E-15
             615            1184     9.14400E-15     10.8953E-15
             597            1184     9.14400E-15     10.8953E-15
             615            1185     8.01024E-15     7.42659E-15
             616            1185     8.01024E-15     7.42659E-15
             599            1185     8.01024E-15     7.42659E-15
             598            1185     8.01024E-15     7.42659E-15
             600            1186     10.4240E-15     10.2054E-15
             599            1186     10.4240E-15     10.2054E-15
             617            1186     10.4240E-15     10.2054E-15
             616            1186     10.4240E-15     10.2054E-15
             617            1187     11.4717E-15     11.7416E-15
             601            1187     11.4717E-15     11.7416E-15
             600            1187     11.4717E-15     11.7416E-15
             618            1187     11.4717E-15     11.7416E-15
             619            1188     9.06561E-15     7.70067E-15
             601            1188     9.06561E-15     7.70067E-15
             602            1188     9.06561E-15     7.70067E-15
             618            1188     9.06561E-15     7.70067E-15
             603            1189     7.05180E-15     7.72246E-15
             602            1189     7.05180E-15     7.72246E-15
             620            1189     7.05180E-15     7.72246E-15
             619            1189     7.05180E-15     7.72246E-15
             603            1190     7.49523E-15     9.34888E-15
             620            1190     7.49523E-15     9.34888E-15
             604            1190     7.49523E-15     9.34888E-15
             621            1190     7.49523E-15     9.34888E-15
             621            1191     9.43068E-15     11.0429E-15
             622            1191     9.43068E-15     11.0429E-15
             604            1191     9.43068E-15     11.0429E-15
             605            1191     9.43068E-15     11.0429E-15
             622            1192     8.06188E-15     8.74315E-15
             623            1192     8.06188E-15     8.74315E-15
             605            1192     8.06188E-15     8.74315E-15
             606            1192     8.06188E-15     8.74315E-15
             607            1193     10.7312E-15     11.8325E-15
             606            1193     10.7312E-15     11.8325E-15
             623            1193     10.7312E-15     11.8325E-15
             624            1193     10.7312E-15     11.8325E-15
             625            1194     11.8954E-15     12.5082E-15
             608            1194     11.8954E-15     12.5082E-15
             624            1194     11.8954E-15     12.5082E-15
             607            1194     11.8954E-15     12.5082E-15
             625            1195     5.82029E-15     5.72305E-15
             609            1195     5.82029E-15     5.72305E-15
             608            1195     5.82029E-15     5.72305E-15
             626            1195     5.82029E-15     5.72305E-15
             626            1196     6.64422E-15     6.48976E-15
             609            1196     6.64422E-15     6.48976E-15
             627            1196     6.64422E-15     6.48976E-15
             610            1196     6.64422E-15     6.48976E-15
             610            1197     9.03781E-15     9.10327E-15
             627            1197     9.03781E-15     9.10327E-15
             611            1197     9.03781E-15     9.10327E-15
             628            1197     9.03781E-15     9.10327E-15
             611            1198     14.0989E-15     14.4858E-15
             612            1198     14.0989E-15     14.4858E-15
             628            1198     14.0989E-15     14.4858E-15
             629            1198     14.0989E-15     14.4858E-15
             631            1199     6.58101E-15     9.30997E-15
             614            1199     6.58101E-15     9.30997E-15
             613            1199     6.58101E-15     9.30997E-15
             630            1199     6.58101E-15     9.30997E-15
             631            1200     8.04195E-15     7.97991E-15
             632            1200     8.04195E-15     7.97991E-15
             615            1200     8.04195E-15     7.97991E-15
             614            1200     8.04195E-15     7.97991E-15
             616            1201     9.51636E-15     7.77069E-15
             633            1201     9.51636E-15     7.77069E-15
             615            1201     9.51636E-15     7.77069E-15
             632            1201     9.51636E-15     7.77069E-15
             633            1202     8.92097E-15     9.50339E-15
             634            1202     8.92097E-15     9.50339E-15
             617            1202     8.92097E-15     9.50339E-15
             616            1202     8.92097E-15     9.50339E-15
             635            1203     10.7145E-15     11.0295E-15
             618            1203     10.7145E-15     11.0295E-15
             634            1203     10.7145E-15     11.0295E-15
             617            1203     10.7145E-15     11.0295E-15
             619            1204     9.06180E-15     9.17317E-15
             636            1204     9.06180E-15     9.17317E-15
             635            1204     9.06180E-15     9.17317E-15
             618            1204     9.06180E-15     9.17317E-15
             636            1205     6.36531E-15     6.12696E-15
             619            1205     6.36531E-15     6.12696E-15
             620            1205     6.36531E-15     6.12696E-15
             637            1205     6.36531E-15     6.12696E-15
             620            1206     7.43815E-15     6.39314E-15
             638            1206     7.43815E-15     6.39314E-15
             637            1206     7.43815E-15     6.39314E-15
             621            1206     7.43815E-15     6.39314E-15
             621            1207     7.32719E-15     7.40126E-15
             639            1207     7.32719E-15     7.40126E-15
             638            1207     7.32719E-15     7.40126E-15
             622            1207     7.32719E-15     7.40126E-15
             623            1208     6.05656E-15     7.94305E-15
             622            1208     6.05656E-15     7.94305E-15
             639            1208     6.05656E-15     7.94305E-15
             640            1208     6.05656E-15     7.94305E-15
             641            1209     8.18096E-15     10.3849E-15
             623            1209     8.18096E-15     10.3849E-15
             624            1209     8.18096E-15     10.3849E-15
             640            1209     8.18096E-15     10.3849E-15
             641            1210     9.32984E-15     10.3985E-15
             642            1210     9.32984E-15     10.3985E-15
             624            1210     9.32984E-15     10.3985E-15
             625            1210     9.32984E-15     10.3985E-15
             643            1211     7.57845E-15     7.42867E-15
             625            1211     7.57845E-15     7.42867E-15
             626            1211     7.57845E-15     7.42867E-15
             642            1211     7.57845E-15     7.42867E-15
             644            1212     8.59219E-15     8.07723E-15
             627            1212     8.59219E-15     8.07723E-15
             626            1212     8.59219E-15     8.07723E-15
             643            1212     8.59219E-15     8.07723E-15
             645            1213     10.4874E-15     10.1025E-15
             644            1213     10.4874E-15     10.1025E-15
             627            1213     10.4874E-15     10.1025E-15
             628            1213     10.4874E-15     10.1025E-15
             645            1214     12.5763E-15     12.4209E-15
             629            1214     12.5763E-15     12.4209E-15
             628            1214     12.5763E-15     12.4209E-15
             646            1214     12.5763E-15     12.4209E-15
             647            1215     10.0050E-15     11.3404E-15
             630            1215     10.0050E-15     11.3404E-15
             648            1215     10.0050E-15     11.3404E-15
             631            1215     10.0050E-15     11.3404E-15
             648            1216     14.3893E-15     10.1291E-15
             631            1216     14.3893E-15     10.1291E-15
             632            1216     14.3893E-15     10.1291E-15
             649            1216     14.3893E-15     10.1291E-15
             649            1217     13.3645E-15     8.49051E-15
             632            1217     13.3645E-15     8.49051E-15
             633            1217     13.3645E-15     8.49051E-15
             650            1217     13.3645E-15     8.49051E-15
             633            1218     10.6705E-15     9.70752E-15
             634            1218     10.6705E-15     9.70752E-15
             651            1218     10.6705E-15     9.70752E-15
             650            1218     10.6705E-15     9.70752E-15
             651            1219     12.9356E-15     10.8885E-15
             634            1219     12.9356E-15     10.8885E-15
             635            1219     12.9356E-15     10.8885E-15
             652            1219     12.9356E-15     10.8885E-15
             635            1220     10.9485E-15     9.16047E-15
             653            1220     10.9485E-15     9.16047E-15
             636            1220     10.9485E-15     9.16047E-15
             652            1220     10.9485E-15     9.16047E-15
             653            1221     9.35753E-15     7.28471E-15
             636            1221     9.35753E-15     7.28471E-15
             637            1221     9.35753E-15     7.28471E-15
             654            1221     9.35753E-15     7.28471E-15
             637            1222     9.74424E-15     7.88908E-15
             655            1222     9.74424E-15     7.88908E-15
             654            1222     9.74424E-15     7.88908E-15
             638            1222     9.74424E-15     7.88908E-15
             638            1223     6.96002E-15     7.19582E-15
             656            1223     6.96002E-15     7.19582E-15
             639            1223     6.96002E-15     7.19582E-15
             655            1223     6.96002E-15     7.19582E-15
             640            1224     6.29222E-15     7.88441E-15
             639            1224     6.29222E-15     7.88441E-15
             656            1224     6.29222E-15     7.88441E-15
             657            1224     6.29222E-15     7.88441E-15
             641            1225     8.44124E-15     10.7254E-15
             658            1225     8.44124E-15     10.7254E-15
             640            1225     8.44124E-15     10.7254E-15
             657            1225     8.44124E-15     10.7254E-15
             641            1226     8.26833E-15     9.69619E-15
             659            1226     8.26833E-15     9.69619E-15
             658            1226     8.26833E-15     9.69619E-15
             642            1226     8.26833E-15     9.69619E-15
             642            1227     5.60614E-15     5.55625E-15
             643            1227     5.60614E-15     5.55625E-15
             660            1227     5.60614E-15     5.55625E-15
             659            1227     5.60614E-15     5.55625E-15
             660            1228     6.86593E-15     5.86466E-15
             661            1228     6.86593E-15     5.86466E-15
             643            1228     6.86593E-15     5.86466E-15
             644            1228     6.86593E-15     5.86466E-15
             645            1229     10.8244E-15     9.79322E-15
             644            1229     10.8244E-15     9.79322E-15
             661            1229     10.8244E-15     9.79322E-15
             662            1229     10.8244E-15     9.79322E-15
             646            1230     11.9512E-15     11.8984E-15
             645            1230     11.9512E-15     11.8984E-15
             662            1230     11.9512E-15     11.8984E-15
             663            1230     11.9512E-15     11.8984E-15
             665            1231     15.2876E-15     14.6428E-15
             647            1231     15.2876E-15     14.6428E-15
             648            1231     15.2876E-15     14.6428E-15
             664            1231     15.2876E-15     14.6428E-15
             666            1232     20.4582E-15     12.1490E-15
             649            1232     20.4582E-15     12.1490E-15
             648            1232     20.4582E-15     12.1490E-15
             665            1232     20.4582E-15     12.1490E-15
             666            1233     13.6796E-15     8.19651E-15
             650            1233     13.6796E-15     8.19651E-15
             649            1233     13.6796E-15     8.19651E-15
             667            1233     13.6796E-15     8.19651E-15
             650            1234     11.7999E-15     12.6586E-15
             667            1234     11.7999E-15     12.6586E-15
             668            1234     11.7999E-15     12.6586E-15
             651            1234     11.7999E-15     12.6586E-15
             651            1235     13.2292E-15     11.6585E-15
             652            1235     13.2292E-15     11.6585E-15
             668            1235     13.2292E-15     11.6585E-15
             669            1235     13.2292E-15     11.6585E-15
             670            1236     12.1999E-15     8.11351E-15
             669            1236     12.1999E-15     8.11351E-15
             653            1236     12.1999E-15     8.11351E-15
             652            1236     12.1999E-15     8.11351E-15
             653            1237     15.7298E-15     11.2436E-15
             671            1237     15.7298E-15     11.2436E-15
             654            1237     15.7298E-15     11.2436E-15
             670            1237     15.7298E-15     11.2436E-15
             671            1238     12.3224E-15     8.34495E-15
             655            1238     12.3224E-15     8.34495E-15
             672            1238     12.3224E-15     8.34495E-15
             654            1238     12.3224E-15     8.34495E-15
             655            1239     8.14438E-15     8.59070E-15
             672            1239     8.14438E-15     8.59070E-15
             673            1239     8.14438E-15     8.59070E-15
             656            1239     8.14438E-15     8.59070E-15
             657            1240     9.85687E-15     11.2138E-15
             673            1240     9.85687E-15     11.2138E-15
             674            1240     9.85687E-15     11.2138E-15
             656            1240     9.85687E-15     11.2138E-15
             657            1241     12.4825E-15     13.9482E-15
             674            1241     12.4825E-15     13.9482E-15
             675            1241     12.4825E-15     13.9482E-15
             658            1241     12.4825E-15     13.9482E-15
             658            1242     13.6006E-15     14.4984E-15
             676            1242     13.6006E-15     14.4984E-15
             659            1242     13.6006E-15     14.4984E-15
             675            1242     13.6006E-15     14.4984E-15
             676            1243     7.76321E-15     7.82152E-15
             677            1243     7.76321E-15     7.82152E-15
             659            1243     7.76321E-15     7.82152E-15
             660            1243     7.76321E-15     7.82152E-15
             678            1244     7.18534E-15     6.62728E-15
             661            1244     7.18534E-15     6.62728E-15
             660            1244     7.18534E-15     6.62728E-15
             677            1244     7.18534E-15     6.62728E-15
             661            1245     8.22406E-15     7.73469E-15
             662            1245     8.22406E-15     7.73469E-15
             678            1245     8.22406E-15     7.73469E-15
             679            1245     8.22406E-15     7.73469E-15
             662            1246     9.12247E-15     9.73109E-15
             663            1246     9.12247E-15     9.73109E-15
             680            1246     9.12247E-15     9.73109E-15
             679            1246     9.12247E-15     9.73109E-15
             686            1247     10.8164E-15     10.9836E-15
             681            1247     10.8164E-15     10.9836E-15
             687            1247     10.8164E-15     10.9836E-15
             682            1247     10.8164E-15     10.9836E-15
             682            1248     7.92042E-15     7.27349E-15
             687            1248     7.92042E-15     7.27349E-15
             688            1248     7.92042E-15     7.27349E-15
             683            1248     7.92042E-15     7.27349E-15
             684            1249     11.9471E-15     11.1545E-15
             688            1249     11.9471E-15     11.1545E-15
             689            1249     11.9471E-15     11.1545E-15
             683            1249     11.9471E-15     11.1545E-15
             689            1250     12.9733E-15     12.6290E-15
             684            1250     12.9733E-15     12.6290E-15
             690            1250     12.9733E-15     12.6290E-15
             685            1250     12.9733E-15     12.6290E-15
             691            1251     8.44870E-15     9.53107E-15
             692            1251     8.44870E-15     9.53107E-15
             687            1251     8.44870E-15     9.53107E-15
             686            1251     8.44870E-15     9.53107E-15
             692            1252     5.96714E-15     5.76705E-15
             688            1252     5.96714E-15     5.76705E-15
             693            1252     5.96714E-15     5.76705E-15
             687            1252     5.96714E-15     5.76705E-15
             694            1253     10.1984E-15     10.0560E-15
             693            1253     10.1984E-15     10.0560E-15
             688            1253     10.1984E-15     10.0560E-15
             689            1253     10.1984E-15     10.0560E-15
             694            1254     14.6770E-15     15.1164E-15
             689            1254     14.6770E-15     15.1164E-15
             695            1254     14.6770E-15     15.1164E-15
             690            1254     14.6770E-15     15.1164E-15
             696            1255     9.89022E-15     10.2825E-15
             697            1255     9.89022E-15     10.2825E-15
             692            1255     9.89022E-15     10.2825E-15
             691            1255     9.89022E-15     10.2825E-15
             692            1256     7.33155E-15     6.84694E-15
             693            1256     7.33155E-15     6.84694E-15
             698            1256     7.33155E-15     6.84694E-15
             697            1256     7.33155E-15     6.84694E-15
             698            1257     10.6881E-15     9.53632E-15
             699            1257     10.6881E-15     9.53632E-15
             694            1257     10.6881E-15     9.53632E-15
             693            1257     10.6881E-15     9.53632E-15
             700            1258     13.5419E-15     12.5656E-15
             694            1258     13.5419E-15     12.5656E-15
             695            1258     13.5419E-15     12.5656E-15
             699            1258     13.5419E-15     12.5656E-15
             702            1259     12.6024E-15     13.0398E-15
             701            1259     12.6024E-15     13.0398E-15
             697            1259     12.6024E-15     13.0398E-15
             696            1259     12.6024E-15     13.0398E-15
             702            1260     8.68973E-15     8.30365E-15
             698            1260     8.68973E-15     8.30365E-15
             697            1260     8.68973E-15     8.30365E-15
             703            1260     8.68973E-15     8.30365E-15
             703            1261     12.8005E-15     10.3518E-15
             699            1261     12.8005E-15     10.3518E-15
             698            1261     12.8005E-15     10.3518E-15
             704            1261     12.8005E-15     10.3518E-15
             699            1262     14.4519E-15     11.8171E-15
             700            1262     14.4519E-15     11.8171E-15
             704            1262     14.4519E-15     11.8171E-15
             705            1262     14.4519E-15     11.8171E-15
             712            1263     42.6434E-03     42.1575E-03
             707            1263     42.6434E-03     42.1575E-03
             711            1263     42.6434E-03     42.1575E-03
             706            1263     42.6434E-03     42.1575E-03
             708            1264     36.1987E-03     36.0759E-03
             712            1264     36.1987E-03     36.0759E-03
             713            1264     36.1987E-03     36.0759E-03
             707            1264     36.1987E-03     36.0759E-03
             713            1265     27.5760E-03     27.7066E-03
             708            1265     27.5760E-03     27.7066E-03
             714            1265     27.5760E-03     27.7066E-03
             709            1265     27.5760E-03     27.7066E-03
             710            1266     14.7628E-03     18.5678E-03
             714            1266     14.7628E-03     18.5678E-03
             709            1266     14.7628E-03     18.5678E-03
             715            1266     14.7628E-03     18.5678E-03
             712            1267     43.2850E-03     42.8547E-03
             717            1267     43.2850E-03     42.8547E-03
             716            1267     43.2850E-03     42.8547E-03
             711            1267     43.2850E-03     42.8547E-03
             712            1268     36.3016E-03     36.5172E-03
             718            1268     36.3016E-03     36.5172E-03
             713            1268     36.3016E-03     36.5172E-03
             717            1268     36.3016E-03     36.5172E-03
             713            1269     27.5445E-03     28.0399E-03
             718            1269     27.5445E-03     28.0399E-03
             714            1269     27.5445E-03     28.0399E-03
             719            1269     27.5445E-03     28.0399E-03
             715            1270     16.7702E-03     18.9396E-03
             714            1270     16.7702E-03     18.9396E-03
             719            1270     16.7702E-03     18.9396E-03
             720            1270     16.7702E-03     18.9396E-03
             721            1271     44.7290E-03     44.3757E-03
             717            1271     44.7290E-03     44.3757E-03
             716            1271     44.7290E-03     44.3757E-03
             722            1271     44.7290E-03     44.3757E-03
             718            1272     37.6192E-03     38.1690E-03
             723            1272     37.6192E-03     38.1690E-03
             722            1272     37.6192E-03     38.1690E-03
             717            1272     37.6192E-03     38.1690E-03
             723            1273     28.3359E-03     29.4936E-03
             718            1273     28.3359E-03     29.4936E-03
             719            1273     28.3359E-03     29.4936E-03
             724            1273     28.3359E-03     29.4936E-03
             725            1274     16.1854E-03     17.9609E-03
             720            1274     16.1854E-03     17.9609E-03
             724            1274     16.1854E-03     17.9609E-03
             719            1274     16.1854E-03     17.9609E-03
             726            1275     45.3345E-03     44.9410E-03
             721            1275     45.3345E-03     44.9410E-03
             722            1275     45.3345E-03     44.9410E-03
             727            1275     45.3345E-03     44.9410E-03
             728            1276     39.6252E-03     39.7506E-03
             727            1276     39.6252E-03     39.7506E-03
             722            1276     39.6252E-03     39.7506E-03
             723            1276     39.6252E-03     39.7506E-03
             729            1277     31.4113E-03     31.1778E-03
             724            1277     31.4113E-03     31.1778E-03
             723            1277     31.4113E-03     31.1778E-03
             728            1277     31.4113E-03     31.1778E-03
             730            1278     22.5019E-03     21.5574E-03
             724            1278     22.5019E-03     21.5574E-03
             725            1278     22.5019E-03     21.5574E-03
             729            1278     22.5019E-03     21.5574E-03
             727            1279     45.4843E-03     45.9800E-03
             726            1279     45.4843E-03     45.9800E-03
             731            1279     45.4843E-03     45.9800E-03
             732            1279     45.4843E-03     45.9800E-03
             727            1280     41.2049E-03     42.5938E-03
             728            1280     41.2049E-03     42.5938E-03
             733            1280     41.2049E-03     42.5938E-03
             732            1280     41.2049E-03     42.5938E-03
             734            1281     34.6763E-03     37.0939E-03
             729            1281     34.6763E-03     37.0939E-03
             728            1281     34.6763E-03     37.0939E-03
             733            1281     34.6763E-03     37.0939E-03
             734            1282     30.1489E-03     32.4964E-03
             729            1282     30.1489E-03     32.4964E-03
             730            1282     30.1489E-03     32.4964E-03
             735            1282     30.1489E-03     32.4964E-03
             736            1283     47.4306E-03     47.0015E-03
             737            1283     47.4306E-03     47.0015E-03
             732            1283     47.4306E-03     47.0015E-03
             731            1283     47.4306E-03     47.0015E-03
             738            1284     46.4422E-03     44.5493E-03
             733            1284     46.4422E-03     44.5493E-03
             737            1284     46.4422E-03     44.5493E-03
             732            1284     46.4422E-03     44.5493E-03
             733            1285     44.5088E-03     42.3744E-03
             739            1285     44.5088E-03     42.3744E-03
             738            1285     44.5088E-03     42.3744E-03
             734            1285     44.5088E-03     42.3744E-03
             739            1286     44.1989E-03     42.6152E-03
             740            1286     44.1989E-03     42.6152E-03
             734            1286     44.1989E-03     42.6152E-03
             735            1286     44.1989E-03     42.6152E-03
             737            1287     48.0485E-03     46.8463E-03
             736            1287     48.0485E-03     46.8463E-03
             741            1287     48.0485E-03     46.8463E-03
             742            1287     48.0485E-03     46.8463E-03
             742            1288     48.6193E-03     46.9308E-03
             743            1288     48.6193E-03     46.9308E-03
             738            1288     48.6193E-03     46.9308E-03
             737            1288     48.6193E-03     46.9308E-03
             739            1289     49.0747E-03     48.4263E-03
             743            1289     49.0747E-03     48.4263E-03
             738            1289     49.0747E-03     48.4263E-03
             744            1289     49.0747E-03     48.4263E-03
             745            1290     54.0456E-03     53.9630E-03
             744            1290     54.0456E-03     53.9630E-03
             740            1290     54.0456E-03     53.9630E-03
             739            1290     54.0456E-03     53.9630E-03
             746            1291     46.6366E-03     46.6914E-03
             742            1291     46.6366E-03     46.6914E-03
             741            1291     46.6366E-03     46.6914E-03
             747            1291     46.6366E-03     46.6914E-03
             747            1292     45.1489E-03     48.1645E-03
             742            1292     45.1489E-03     48.1645E-03
             743            1292     45.1489E-03     48.1645E-03
             748            1292     45.1489E-03     48.1645E-03
             748            1293     44.8389E-03     52.2512E-03
             743            1293     44.8389E-03     52.2512E-03
             744            1293     44.8389E-03     52.2512E-03
             749            1293     44.8389E-03     52.2512E-03
             750            1294     47.2824E-03     54.5271E-03
             749            1294     47.2824E-03     54.5271E-03
             744            1294     47.2824E-03     54.5271E-03
             745            1294     47.2824E-03     54.5271E-03
             746            1295     47.3459E-03     46.9710E-03
             752            1295     47.3459E-03     46.9710E-03
             747            1295     47.3459E-03     46.9710E-03
             751            1295     47.3459E-03     46.9710E-03
             753            1296     46.8280E-03     47.6263E-03
             748            1296     46.8280E-03     47.6263E-03
             752            1296     46.8280E-03     47.6263E-03
             747            1296     46.8280E-03     47.6263E-03
             749            1297     48.8546E-03     49.7032E-03
             748            1297     48.8546E-03     49.7032E-03
             754            1297     48.8546E-03     49.7032E-03
             753            1297     48.8546E-03     49.7032E-03
             750            1298     47.5772E-03     46.0193E-03
             755            1298     47.5772E-03     46.0193E-03
             754            1298     47.5772E-03     46.0193E-03
             749            1298     47.5772E-03     46.0193E-03
             751            1299     48.8649E-03     48.6460E-03
             756            1299     48.8649E-03     48.6460E-03
             757            1299     48.8649E-03     48.6460E-03
             752            1299     48.8649E-03     48.6460E-03
             758            1300     50.7503E-03     51.7007E-03
             757            1300     50.7503E-03     51.7007E-03
             752            1300     50.7503E-03     51.7007E-03
             753            1300     50.7503E-03     51.7007E-03
             754            1301     52.5839E-03     54.4432E-03
             759            1301     52.5839E-03     54.4432E-03
             753            1301     52.5839E-03     54.4432E-03
             758            1301     52.5839E-03     54.4432E-03
             759            1302     52.8852E-03     54.2005E-03
             760            1302     52.8852E-03     54.2005E-03
             754            1302     52.8852E-03     54.2005E-03
             755            1302     52.8852E-03     54.2005E-03
             757            1303     50.8173E-03     50.2879E-03
             756            1303     50.8173E-03     50.2879E-03
             761            1303     50.8173E-03     50.2879E-03
             762            1303     50.8173E-03     50.2879E-03
             763            1304     54.8808E-03     54.3252E-03
             757            1304     54.8808E-03     54.3252E-03
             762            1304     54.8808E-03     54.3252E-03
             758            1304     54.8808E-03     54.3252E-03
             758            1305     58.3471E-03     58.1126E-03
             763            1305     58.3471E-03     58.1126E-03
             759            1305     58.3471E-03     58.1126E-03
             764            1305     58.3471E-03     58.1126E-03
             760            1306     62.2915E-03     61.7714E-03
             764            1306     62.2915E-03     61.7714E-03
             759            1306     62.2915E-03     61.7714E-03
             765            1306     62.2915E-03     61.7714E-03
             767            1307     51.4960E-03     52.5020E-03
             761            1307     51.4960E-03     52.5020E-03
             766            1307     51.4960E-03     52.5020E-03
             762            1307     51.4960E-03     52.5020E-03
             768            1308     57.6038E-03     59.7145E-03
             767            1308     57.6038E-03     59.7145E-03
             763            1308     57.6038E-03     59.7145E-03
             762            1308     57.6038E-03     59.7145E-03
             768            1309     62.8251E-03     68.0247E-03
             769            1309     62.8251E-03     68.0247E-03
             763            1309     62.8251E-03     68.0247E-03
             764            1309     62.8251E-03     68.0247E-03
             765            1310     69.6567E-03     75.0167E-03
             764            1310     69.6567E-03     75.0167E-03
             769            1310     69.6567E-03     75.0167E-03
             770            1310     69.6567E-03     75.0167E-03
             767            1311     55.0084E-03     54.1615E-03
             766            1311     55.0084E-03     54.1615E-03
             772            1311     55.0084E-03     54.1615E-03
             771            1311     55.0084E-03     54.1615E-03
             768            1312     66.8604E-03     63.0747E-03
             772            1312     66.8604E-03     63.0747E-03
             773            1312     66.8604E-03     63.0747E-03
             767            1312     66.8604E-03     63.0747E-03
             774            1313     77.6405E-03     74.9141E-03
             769            1313     77.6405E-03     74.9141E-03
             768            1313     77.6405E-03     74.9141E-03
             773            1313     77.6405E-03     74.9141E-03
             775            1314     87.0353E-03     85.1968E-03
             774            1314     87.0353E-03     85.1968E-03
             769            1314     87.0353E-03     85.1968E-03
             770            1314     87.0353E-03     85.1968E-03
             776            1315     55.5800E-03     53.5847E-03
             771            1315     55.5800E-03     53.5847E-03
             772            1315     55.5800E-03     53.5847E-03
             777            1315     55.5800E-03     53.5847E-03
             773            1316     69.6203E-03     66.3573E-03
             772            1316     69.6203E-03     66.3573E-03
             777            1316     69.6203E-03     66.3573E-03
             778            1316     69.6203E-03     66.3573E-03
             774            1317     83.7880E-03     82.2647E-03
             773            1317     83.7880E-03     82.2647E-03
             778            1317     83.7880E-03     82.2647E-03
             779            1317     83.7880E-03     82.2647E-03
             774            1318     98.1510E-03     97.3267E-03
             775            1318     98.1510E-03     97.3267E-03
             779            1318     98.1510E-03     97.3267E-03
             780            1318     98.1510E-03     97.3267E-03
             777            1319     52.1647E-03     53.5461E-03
             776            1319     52.1647E-03     53.5461E-03
             782            1319     52.1647E-03     53.5461E-03
             781            1319     52.1647E-03     53.5461E-03
             778            1320     61.6040E-03     69.0513E-03
             777            1320     61.6040E-03     69.0513E-03
             783            1320     61.6040E-03     69.0513E-03
             782            1320     61.6040E-03     69.0513E-03
             783            1321     73.6203E-03     88.5867E-03
             784            1321     73.6203E-03     88.5867E-03
             779            1321     73.6203E-03     88.5867E-03
             778            1321     73.6203E-03     88.5867E-03
             780            1322     86.3784E-03     99.9675E-03
             784            1322     86.3784E-03     99.9675E-03
             779            1322     86.3784E-03     99.9675E-03
             785            1322     86.3784E-03     99.9675E-03
             786            1323     54.3994E-03     54.0637E-03
             781            1323     54.3994E-03     54.0637E-03
             787            1323     54.3994E-03     54.0637E-03
             782            1323     54.3994E-03     54.0637E-03
             787            1324     66.9953E-03     66.9728E-03
             788            1324     66.9953E-03     66.9728E-03
             782            1324     66.9953E-03     66.9728E-03
             783            1324     66.9953E-03     66.9728E-03
             789            1325     82.0508E-03     82.9975E-03
             783            1325     82.0508E-03     82.9975E-03
             784            1325     82.0508E-03     82.9975E-03
             788            1325     82.0508E-03     82.9975E-03
             789            1326     89.2628E-03     88.5659E-03
             784            1326     89.2628E-03     88.5659E-03
             790            1326     89.2628E-03     88.5659E-03
             785            1326     89.2628E-03     88.5659E-03
             786            1327     57.5261E-03     55.9989E-03
             787            1327     57.5261E-03     55.9989E-03
             792            1327     57.5261E-03     55.9989E-03
             791            1327     57.5261E-03     55.9989E-03
             792            1328     73.2030E-03     70.7076E-03
             793            1328     73.2030E-03     70.7076E-03
             787            1328     73.2030E-03     70.7076E-03
             788            1328     73.2030E-03     70.7076E-03
             793            1329     87.9253E-03     85.1115E-03
             788            1329     87.9253E-03     85.1115E-03
             794            1329     87.9253E-03     85.1115E-03
             789            1329     87.9253E-03     85.1115E-03
             789            1330     96.8133E-03     93.4072E-03
             790            1330     96.8133E-03     93.4072E-03
             794            1330     96.8133E-03     93.4072E-03
             795            1330     96.8133E-03     93.4072E-03
             797            1331     57.8338E-03     59.9434E-03
             791            1331     57.8338E-03     59.9434E-03
             792            1331     57.8338E-03     59.9434E-03
             796            1331     57.8338E-03     59.9434E-03
             792            1332     73.2094E-03     78.3433E-03
             797            1332     73.2094E-03     78.3433E-03
             798            1332     73.2094E-03     78.3433E-03
             793            1332     73.2094E-03     78.3433E-03
             793            1333     85.6963E-03     95.9698E-03
             794            1333     85.6963E-03     95.9698E-03
             799            1333     85.6963E-03     95.9698E-03
             798            1333     85.6963E-03     95.9698E-03
             799            1334     98.1255E-03     108.078E-03
             794            1334     98.1255E-03     108.078E-03
             795            1334     98.1255E-03     108.078E-03
             800            1334     98.1255E-03     108.078E-03
             797            1335     62.2988E-03     61.3739E-03
             801            1335     62.2988E-03     61.3739E-03
             802            1335     62.2988E-03     61.3739E-03
             796            1335     62.2988E-03     61.3739E-03
             797            1336     85.5908E-03     80.0262E-03
             802            1336     85.5908E-03     80.0262E-03
             803            1336     85.5908E-03     80.0262E-03
             798            1336     85.5908E-03     80.0262E-03
             804            1337     105.532E-03     100.149E-03
             803            1337     105.532E-03     100.149E-03
             798            1337     105.532E-03     100.149E-03
             799            1337     105.532E-03     100.149E-03
             804            1338     120.341E-03     116.198E-03
             799            1338     120.341E-03     116.198E-03
             805            1338     120.341E-03     116.198E-03
             800            1338     120.341E-03     116.198E-03
             806            1339     62.4984E-03     60.1482E-03
             802            1339     62.4984E-03     60.1482E-03
             801            1339     62.4984E-03     60.1482E-03
             807            1339     62.4984E-03     60.1482E-03
             807            1340     87.7885E-03     83.6623E-03
             803            1340     87.7885E-03     83.6623E-03
             808            1340     87.7885E-03     83.6623E-03
             802            1340     87.7885E-03     83.6623E-03
             804            1341     111.167E-03     109.542E-03
             809            1341     111.167E-03     109.542E-03
             808            1341     111.167E-03     109.542E-03
             803            1341     111.167E-03     109.542E-03
             804            1342     131.541E-03     130.871E-03
             809            1342     131.541E-03     130.871E-03
             805            1342     131.541E-03     130.871E-03
             810            1342     131.541E-03     130.871E-03
             807            1343     57.8984E-03     60.3704E-03
             811            1343     57.8984E-03     60.3704E-03
             812            1343     57.8984E-03     60.3704E-03
             806            1343     57.8984E-03     60.3704E-03
             812            1344     77.2466E-03     88.0805E-03
             807            1344     77.2466E-03     88.0805E-03
             813            1344     77.2466E-03     88.0805E-03
             808            1344     77.2466E-03     88.0805E-03
             808            1345     98.6390E-03     119.865E-03
             809            1345     98.6390E-03     119.865E-03
             813            1345     98.6390E-03     119.865E-03
             814            1345     98.6390E-03     119.865E-03
             814            1346     118.476E-03     137.866E-03
             809            1346     118.476E-03     137.866E-03
             815            1346     118.476E-03     137.866E-03
             810            1346     118.476E-03     137.866E-03
             812            1347     61.4507E-03     60.4601E-03
             816            1347     61.4507E-03     60.4601E-03
             817            1347     61.4507E-03     60.4601E-03
             811            1347     61.4507E-03     60.4601E-03
             818            1348     85.3692E-03     84.8734E-03
             812            1348     85.3692E-03     84.8734E-03
             813            1348     85.3692E-03     84.8734E-03
             817            1348     85.3692E-03     84.8734E-03
             818            1349     111.550E-03     111.658E-03
             814            1349     111.550E-03     111.658E-03
             819            1349     111.550E-03     111.658E-03
             813            1349     111.550E-03     111.658E-03
             820            1350     126.048E-03     123.039E-03
             815            1350     126.048E-03     123.039E-03
             814            1350     126.048E-03     123.039E-03
             819            1350     126.048E-03     123.039E-03
             821            1351     65.3267E-03     63.9932E-03
             816            1351     65.3267E-03     63.9932E-03
             822            1351     65.3267E-03     63.9932E-03
             817            1351     65.3267E-03     63.9932E-03
             822            1352     91.9803E-03     90.9387E-03
             818            1352     91.9803E-03     90.9387E-03
             823            1352     91.9803E-03     90.9387E-03
             817            1352     91.9803E-03     90.9387E-03
             823            1353     115.111E-03     116.164E-03
             818            1353     115.111E-03     116.164E-03
             824            1353     115.111E-03     116.164E-03
             819            1353     115.111E-03     116.164E-03
             820            1354     129.089E-03     130.248E-03
             825            1354     129.089E-03     130.248E-03
             819            1354     129.089E-03     130.248E-03
             824            1354     129.089E-03     130.248E-03
             822            1355     67.9037E-03     67.1391E-03
             821            1355     67.9037E-03     67.1391E-03
             826            1355     67.9037E-03     67.1391E-03
             827            1355     67.9037E-03     67.1391E-03
             823            1356     94.3179E-03     94.2916E-03
             828            1356     94.3179E-03     94.2916E-03
             822            1356     94.3179E-03     94.2916E-03
             827            1356     94.3179E-03     94.2916E-03
             829            1357     116.328E-03     119.149E-03
             828            1357     116.328E-03     119.149E-03
             823            1357     116.328E-03     119.149E-03
             824            1357     116.328E-03     119.149E-03
             825            1358     134.546E-03     137.038E-03
             829            1358     134.546E-03     137.038E-03
             830            1358     134.546E-03     137.038E-03
             824            1358     134.546E-03     137.038E-03
             827            1359     68.6356E-03     70.4485E-03
             831            1359     68.6356E-03     70.4485E-03
             832            1359     68.6356E-03     70.4485E-03
             826            1359     68.6356E-03     70.4485E-03
             832            1360     97.7264E-03     100.748E-03
             833            1360     97.7264E-03     100.748E-03
             828            1360     97.7264E-03     100.748E-03
             827            1360     97.7264E-03     100.748E-03
             828            1361     121.174E-03     129.698E-03
             834            1361     121.174E-03     129.698E-03
             829            1361     121.174E-03     129.698E-03
             833            1361     121.174E-03     129.698E-03
             830            1362     142.018E-03     150.432E-03
             829            1362     142.018E-03     150.432E-03
             834            1362     142.018E-03     150.432E-03
             835            1362     142.018E-03     150.432E-03
             831            1363     73.7579E-03     72.4412E-03
             837            1363     73.7579E-03     72.4412E-03
             836            1363     73.7579E-03     72.4412E-03
             832            1363     73.7579E-03     72.4412E-03
             837            1364     111.421E-03     105.022E-03
             833            1364     111.421E-03     105.022E-03
             832            1364     111.421E-03     105.022E-03
             838            1364     111.421E-03     105.022E-03
             838            1365     141.878E-03     138.162E-03
             839            1365     141.878E-03     138.162E-03
             834            1365     141.878E-03     138.162E-03
             833            1365     141.878E-03     138.162E-03
             834            1366     163.799E-03     161.740E-03
             835            1366     163.799E-03     161.740E-03
             839            1366     163.799E-03     161.740E-03
             840            1366     163.799E-03     161.740E-03
             836            1367     73.2119E-03     70.0901E-03
             842            1367     73.2119E-03     70.0901E-03
             837            1367     73.2119E-03     70.0901E-03
             841            1367     73.2119E-03     70.0901E-03
             837            1368     113.303E-03     107.982E-03
             842            1368     113.303E-03     107.982E-03
             838            1368     113.303E-03     107.982E-03
             843            1368     113.303E-03     107.982E-03
             844            1369     149.313E-03     146.803E-03
             838            1369     149.313E-03     146.803E-03
             843            1369     149.313E-03     146.803E-03
             839            1369     149.313E-03     146.803E-03
             845            1370     177.601E-03     175.373E-03
             839            1370     177.601E-03     175.373E-03
             840            1370     177.601E-03     175.373E-03
             844            1370     177.601E-03     175.373E-03
             847            1371     66.3956E-03     70.5158E-03
             846            1371     66.3956E-03     70.5158E-03
             841            1371     66.3956E-03     70.5158E-03
             842            1371     66.3956E-03     70.5158E-03
             842            1372     97.9989E-03     113.367E-03
             848            1372     97.9989E-03     113.367E-03
             847            1372     97.9989E-03     113.367E-03
             843            1372     97.9989E-03     113.367E-03
             848            1373     130.234E-03     158.901E-03
             844            1373     130.234E-03     158.901E-03
             849            1373     130.234E-03     158.901E-03
             843            1373     130.234E-03     158.901E-03
             849            1374     158.645E-03     184.308E-03
             845            1374     158.645E-03     184.308E-03
             850            1374     158.645E-03     184.308E-03
             844            1374     158.645E-03     184.308E-03
             852            1375     72.0965E-03     71.1705E-03
             846            1375     72.0965E-03     71.1705E-03
             847            1375     72.0965E-03     71.1705E-03
             851            1375     72.0965E-03     71.1705E-03
             848            1376     109.938E-03     108.458E-03
             852            1376     109.938E-03     108.458E-03
             847            1376     109.938E-03     108.458E-03
             853            1376     109.938E-03     108.458E-03
             854            1377     146.722E-03     147.279E-03
             848            1377     146.722E-03     147.279E-03
             849            1377     146.722E-03     147.279E-03
             853            1377     146.722E-03     147.279E-03
             850            1378     167.609E-03     166.372E-03
             849            1378     167.609E-03     166.372E-03
             854            1378     167.609E-03     166.372E-03
             855            1378     167.609E-03     166.372E-03
             851            1379     77.4238E-03     74.3821E-03
             852            1379     77.4238E-03     74.3821E-03
             857            1379     77.4238E-03     74.3821E-03
             856            1379     77.4238E-03     74.3821E-03
             853            1380     118.584E-03     112.654E-03
             857            1380     118.584E-03     112.654E-03
             858            1380     118.584E-03     112.654E-03
             852            1380     118.584E-03     112.654E-03
             853            1381     153.013E-03     146.958E-03
             854            1381     153.013E-03     146.958E-03
             859            1381     153.013E-03     146.958E-03
             858            1381     153.013E-03     146.958E-03
             859            1382     174.127E-03     167.999E-03
             855            1382     174.127E-03     167.999E-03
             854            1382     174.127E-03     167.999E-03
             860            1382     174.127E-03     167.999E-03
             856            1383     76.3576E-03     80.6333E-03
             862            1383     76.3576E-03     80.6333E-03
             857            1383     76.3576E-03     80.6333E-03
             861            1383     76.3576E-03     80.6333E-03
             858            1384     114.133E-03     123.409E-03
             857            1384     114.133E-03     123.409E-03
             863            1384     114.133E-03     123.409E-03
             862            1384     114.133E-03     123.409E-03
             858            1385     142.644E-03     160.780E-03
             864            1385     142.644E-03     160.780E-03
             859            1385     142.644E-03     160.780E-03
             863            1385     142.644E-03     160.780E-03
             859            1386     167.883E-03     185.282E-03
             864            1386     167.883E-03     185.282E-03
             860            1386     167.883E-03     185.282E-03
             865            1386     167.883E-03     185.282E-03
             861            1387     82.7640E-03     81.1748E-03
             862            1387     82.7640E-03     81.1748E-03
             867            1387     82.7640E-03     81.1748E-03
             866            1387     82.7640E-03     81.1748E-03
             867            1388     131.989E-03     122.936E-03
             862            1388     131.989E-03     122.936E-03
             868            1388     131.989E-03     122.936E-03
             863            1388     131.989E-03     122.936E-03
             869            1389     171.022E-03     162.407E-03
             868            1389     171.022E-03     162.407E-03
             863            1389     171.022E-03     162.407E-03
             864            1389     171.022E-03     162.407E-03
             865            1390     197.758E-03     190.909E-03
             864            1390     197.758E-03     190.909E-03
             870            1390     197.758E-03     190.909E-03
             869            1390     197.758E-03     190.909E-03
             867            1391     81.6302E-03     78.3049E-03
             866            1391     81.6302E-03     78.3049E-03
             871            1391     81.6302E-03     78.3049E-03
             872            1391     81.6302E-03     78.3049E-03
             872            1392     132.695E-03     126.751E-03
             873            1392     132.695E-03     126.751E-03
             868            1392     132.695E-03     126.751E-03
             867            1392     132.695E-03     126.751E-03
             869            1393     176.681E-03     174.540E-03
             868            1393     176.681E-03     174.540E-03
             873            1393     176.681E-03     174.540E-03
             874            1393     176.681E-03     174.540E-03
             869            1394     210.120E-03     208.920E-03
             870            1394     210.120E-03     208.920E-03
             875            1394     210.120E-03     208.920E-03
             874            1394     210.120E-03     208.920E-03
             872            1395     70.7486E-03     73.6247E-03
             876            1395     70.7486E-03     73.6247E-03
             871            1395     70.7486E-03     73.6247E-03
             877            1395     70.7486E-03     73.6247E-03
             872            1396     117.423E-03     128.364E-03
             878            1396     117.423E-03     128.364E-03
             877            1396     117.423E-03     128.364E-03
             873            1396     117.423E-03     128.364E-03
             873            1397     157.674E-03     178.307E-03
             878            1397     157.674E-03     178.307E-03
             874            1397     157.674E-03     178.307E-03
             879            1397     157.674E-03     178.307E-03
             880            1398     190.860E-03     211.325E-03
             875            1398     190.860E-03     211.325E-03
             874            1398     190.860E-03     211.325E-03
             879            1398     190.860E-03     211.325E-03
            1048            1491     25.3133E-03     28.7451E-03
            1049            1491     25.3133E-03     28.7451E-03
            1031            1491     25.3133E-03     28.7451E-03
            1032            1491     25.3133E-03     28.7451E-03
            1050            1492     34.8745E-03     36.1354E-03
            1033            1492     34.8745E-03     36.1354E-03
            1032            1492     34.8745E-03     36.1354E-03
            1049            1492     34.8745E-03     36.1354E-03
            1050            1493     46.4154E-03     47.3059E-03
            1034            1493     46.4154E-03     47.3059E-03
            1051            1493     46.4154E-03     47.3059E-03
            1033            1493     46.4154E-03     47.3059E-03
            1034            1494     58.8673E-03     59.6633E-03
            1051            1494     58.8673E-03     59.6633E-03
            1035            1494     58.8673E-03     59.6633E-03
            1052            1494     58.8673E-03     59.6633E-03
            1052            1495     71.7155E-03     72.5177E-03
            1036            1495     71.7155E-03     72.5177E-03
            1053            1495     71.7155E-03     72.5177E-03
            1035            1495     71.7155E-03     72.5177E-03
            1036            1496     84.7963E-03     85.6117E-03
            1037            1496     84.7963E-03     85.6117E-03
            1053            1496     84.7963E-03     85.6117E-03
            1054            1496     84.7963E-03     85.6117E-03
            1054            1497     98.0161E-03     98.8207E-03
            1055            1497     98.0161E-03     98.8207E-03
            1038            1497     98.0161E-03     98.8207E-03
            1037            1497     98.0161E-03     98.8207E-03
            1056            1498     111.269E-03     112.086E-03
            1055            1498     111.269E-03     112.086E-03
            1039            1498     111.269E-03     112.086E-03
            1038            1498     111.269E-03     112.086E-03
            1039            1499     124.554E-03     125.362E-03
            1040            1499     124.554E-03     125.362E-03
            1057            1499     124.554E-03     125.362E-03
            1056            1499     124.554E-03     125.362E-03
            1041            1500     137.768E-03     138.599E-03
            1057            1500     137.768E-03     138.599E-03
            1058            1500     137.768E-03     138.599E-03
            1040            1500     137.768E-03     138.599E-03
            1042            1501     150.991E-03     151.767E-03
            1041            1501     150.991E-03     151.767E-03
            1059            1501     150.991E-03     151.767E-03
            1058            1501     150.991E-03     151.767E-03
            1042            1502     164.024E-03     164.832E-03
            1059            1502     164.024E-03     164.832E-03
            1060            1502     164.024E-03     164.832E-03
            1043            1502     164.024E-03     164.832E-03
            1061            1503     177.078E-03     177.670E-03
            1043            1503     177.078E-03     177.670E-03
            1044            1503     177.078E-03     177.670E-03
            1060            1503     177.078E-03     177.670E-03
            1045            1504     189.555E-03     189.974E-03
            1061            1504     189.555E-03     189.974E-03
            1062            1504     189.555E-03     189.974E-03
            1044            1504     189.555E-03     189.974E-03
            1045            1505     200.100E-03     200.980E-03
            1046            1505     200.100E-03     200.980E-03
            1062            1505     200.100E-03     200.980E-03
            1063            1505     200.100E-03     200.980E-03
            1064            1506     208.235E-03     207.969E-03
            1046            1506     208.235E-03     207.969E-03
            1047            1506     208.235E-03     207.969E-03
            1063            1506     208.235E-03     207.969E-03
            1049            1507     18.8996E-03     22.9092E-03
            1066            1507     18.8996E-03     22.9092E-03
            1065            1507     18.8996E-03     22.9092E-03
            1048            1507     18.8996E-03     22.9092E-03
            1050            1508     29.1169E-03     33.1959E-03
            1066            1508     29.1169E-03     33.1959E-03
            1067            1508     29.1169E-03     33.1959E-03
            1049            1508     29.1169E-03     33.1959E-03
            1068            1509     42.1953E-03     45.0107E-03
            1050            1509     42.1953E-03     45.0107E-03
            1051            1509     42.1953E-03     45.0107E-03
            1067            1509     42.1953E-03     45.0107E-03
            1051            1510     55.3964E-03     58.1597E-03
            1052            1510     55.3964E-03     58.1597E-03
            1068            1510     55.3964E-03     58.1597E-03
            1069            1510     55.3964E-03     58.1597E-03
            1069            1511     68.7269E-03     71.6014E-03
            1052            1511     68.7269E-03     71.6014E-03
            1053            1511     68.7269E-03     71.6014E-03
            1070            1511     68.7269E-03     71.6014E-03
            1071            1512     82.2134E-03     85.1428E-03
            1053            1512     82.2134E-03     85.1428E-03
            1054            1512     82.2134E-03     85.1428E-03
            1070            1512     82.2134E-03     85.1428E-03
            1055            1513     95.7660E-03     98.7463E-03
            1071            1513     95.7660E-03     98.7463E-03
            1054            1513     95.7660E-03     98.7463E-03
            1072            1513     95.7660E-03     98.7463E-03
            1056            1514     109.397E-03     112.383E-03
            1055            1514     109.397E-03     112.383E-03
            1073            1514     109.397E-03     112.383E-03
            1072            1514     109.397E-03     112.383E-03
            1057            1515     123.071E-03     126.063E-03
            1056            1515     123.071E-03     126.063E-03
            1074            1515     123.071E-03     126.063E-03
            1073            1515     123.071E-03     126.063E-03
            1075            1516     136.819E-03     139.794E-03
            1074            1516     136.819E-03     139.794E-03
            1058            1516     136.819E-03     139.794E-03
            1057            1516     136.819E-03     139.794E-03
            1059            1517     150.624E-03     153.625E-03
            1058            1517     150.624E-03     153.625E-03
            1075            1517     150.624E-03     153.625E-03
            1076            1517     150.624E-03     153.625E-03
            1076            1518     164.606E-03     167.645E-03
            1077            1518     164.606E-03     167.645E-03
            1060            1518     164.606E-03     167.645E-03
            1059            1518     164.606E-03     167.645E-03
            1060            1519     178.609E-03     181.941E-03
            1078            1519     178.609E-03     181.941E-03
            1061            1519     178.609E-03     181.941E-03
            1077            1519     178.609E-03     181.941E-03
            1079            1520     193.241E-03     196.963E-03
            1062            1520     193.241E-03     196.963E-03
            1078            1520     193.241E-03     196.963E-03
            1061            1520     193.241E-03     196.963E-03
            1062            1521     207.765E-03     211.970E-03
            1063            1521     207.765E-03     211.970E-03
            1079            1521     207.765E-03     211.970E-03
            1080            1521     207.765E-03     211.970E-03
            1080            1522     219.225E-03     223.823E-03
            1064            1522     219.225E-03     223.823E-03
            1081            1522     219.225E-03     223.823E-03
            1063            1522     219.225E-03     223.823E-03
            1065            1523     13.2103E-03     18.4962E-03
            1082            1523     13.2103E-03     18.4962E-03
            1066            1523     13.2103E-03     18.4962E-03
            1083            1523     13.2103E-03     18.4962E-03
            1083            1524     25.7192E-03     31.3268E-03
            1066            1524     25.7192E-03     31.3268E-03
            1084            1524     25.7192E-03     31.3268E-03
            1067            1524     25.7192E-03     31.3268E-03
            1085            1525     39.2662E-03     44.3433E-03
            1067            1525     39.2662E-03     44.3433E-03
            1068            1525     39.2662E-03     44.3433E-03
            1084            1525     39.2662E-03     44.3433E-03
            1086            1526     52.8870E-03     57.9027E-03
            1068            1526     52.8870E-03     57.9027E-03
            1069            1526     52.8870E-03     57.9027E-03
            1085            1526     52.8870E-03     57.9027E-03
            1070            1527     66.5268E-03     71.6191E-03
            1087            1527     66.5268E-03     71.6191E-03
            1086            1527     66.5268E-03     71.6191E-03
            1069            1527     66.5268E-03     71.6191E-03
            1088            1528     80.2004E-03     85.3543E-03
            1087            1528     80.2004E-03     85.3543E-03
            1070            1528     80.2004E-03     85.3543E-03
            1071            1528     80.2004E-03     85.3543E-03
            1071            1529     93.9164E-03     99.1027E-03
            1089            1529     93.9164E-03     99.1027E-03
            1088            1529     93.9164E-03     99.1027E-03
            1072            1529     93.9164E-03     99.1027E-03
            1090            1530     107.673E-03     112.866E-03
            1072            1530     107.673E-03     112.866E-03
            1089            1530     107.673E-03     112.866E-03
            1073            1530     107.673E-03     112.866E-03
            1074            1531     121.458E-03     126.646E-03
            1090            1531     121.458E-03     126.646E-03
            1073            1531     121.458E-03     126.646E-03
            1091            1531     121.458E-03     126.646E-03
            1091            1532     135.303E-03     140.478E-03
            1074            1532     135.303E-03     140.478E-03
            1092            1532     135.303E-03     140.478E-03
            1075            1532     135.303E-03     140.478E-03
            1093            1533     149.181E-03     154.379E-03
            1092            1533     149.181E-03     154.379E-03
            1075            1533     149.181E-03     154.379E-03
            1076            1533     149.181E-03     154.379E-03
            1076            1534     163.193E-03     168.419E-03
            1093            1534     163.193E-03     168.419E-03
            1094            1534     163.193E-03     168.419E-03
            1077            1534     163.193E-03     168.419E-03
            1078            1535     177.301E-03     182.865E-03
            1094            1535     177.301E-03     182.865E-03
            1095            1535     177.301E-03     182.865E-03
            1077            1535     177.301E-03     182.865E-03
            1078            1536     191.872E-03     197.977E-03
            1079            1536     191.872E-03     197.977E-03
            1096            1536     191.872E-03     197.977E-03
            1095            1536     191.872E-03     197.977E-03
            1096            1537     209.260E-03     215.208E-03
            1079            1537     209.260E-03     215.208E-03
            1080            1537     209.260E-03     215.208E-03
            1097            1537     209.260E-03     215.208E-03
            1097            1538     226.898E-03     231.072E-03
            1080            1538     226.898E-03     231.072E-03
            1098            1538     226.898E-03     231.072E-03
            1081            1538     226.898E-03     231.072E-03
            1099            1539     11.9693E-03     18.3350E-03
            1100            1539     11.9693E-03     18.3350E-03
            1082            1539     11.9693E-03     18.3350E-03
            1083            1539     11.9693E-03     18.3350E-03
            1101            1540     24.8311E-03     31.3788E-03
            1084            1540     24.8311E-03     31.3788E-03
            1100            1540     24.8311E-03     31.3788E-03
            1083            1540     24.8311E-03     31.3788E-03
            1101            1541     37.9353E-03     45.2975E-03
            1084            1541     37.9353E-03     45.2975E-03
            1085            1541     37.9353E-03     45.2975E-03
            1102            1541     37.9353E-03     45.2975E-03
            1086            1542     51.5159E-03     58.8962E-03
            1085            1542     51.5159E-03     58.8962E-03
            1102            1542     51.5159E-03     58.8962E-03
            1103            1542     51.5159E-03     58.8962E-03
            1104            1543     65.1628E-03     72.5565E-03
            1087            1543     65.1628E-03     72.5565E-03
            1086            1543     65.1628E-03     72.5565E-03
            1103            1543     65.1628E-03     72.5565E-03
            1087            1544     78.8096E-03     86.2120E-03
            1105            1544     78.8096E-03     86.2120E-03
            1104            1544     78.8096E-03     86.2120E-03
            1088            1544     78.8096E-03     86.2120E-03
            1089            1545     92.4718E-03     99.8605E-03
            1088            1545     92.4718E-03     99.8605E-03
            1105            1545     92.4718E-03     99.8605E-03
            1106            1545     92.4718E-03     99.8605E-03
            1090            1546     106.090E-03     113.482E-03
            1107            1546     106.090E-03     113.482E-03
            1089            1546     106.090E-03     113.482E-03
            1106            1546     106.090E-03     113.482E-03
            1090            1547     119.686E-03     127.079E-03
            1108            1547     119.686E-03     127.079E-03
            1091            1547     119.686E-03     127.079E-03
            1107            1547     119.686E-03     127.079E-03
            1109            1548     133.189E-03     140.593E-03
            1108            1548     133.189E-03     140.593E-03
            1091            1548     133.189E-03     140.593E-03
            1092            1548     133.189E-03     140.593E-03
            1093            1549     146.666E-03     154.035E-03
            1092            1549     146.666E-03     154.035E-03
            1109            1549     146.666E-03     154.035E-03
            1110            1549     146.666E-03     154.035E-03
            1093            1550     159.950E-03     167.335E-03
            1110            1550     159.950E-03     167.335E-03
            1111            1550     159.950E-03     167.335E-03
            1094            1550     159.950E-03     167.335E-03
            1094            1551     173.434E-03     180.647E-03
            1112            1551     173.434E-03     180.647E-03
            1095            1551     173.434E-03     180.647E-03
            1111            1551     173.434E-03     180.647E-03
            1095            1552     187.023E-03     194.128E-03
            1113            1552     187.023E-03     194.128E-03
            1096            1552     187.023E-03     194.128E-03
            1112            1552     187.023E-03     194.128E-03
            1114            1553     202.866E-03     210.029E-03
            1097            1553     202.866E-03     210.029E-03
            1096            1553     202.866E-03     210.029E-03
            1113            1553     202.866E-03     210.029E-03
            1098            1554     226.203E-03     231.173E-03
            1097            1554     226.203E-03     231.173E-03
            1114            1554     226.203E-03     231.173E-03
            1115            1554     226.203E-03     231.173E-03
            1116            1555     9.46139E-03     11.7186E-03
            1117            1555     9.46139E-03     11.7186E-03
            1133            1555     9.46139E-03     11.7186E-03
            1134            1555     9.46139E-03     11.7186E-03
            1134            1556     11.2559E-03     10.9182E-03
            1135            1556     11.2559E-03     10.9182E-03
            1117            1556     11.2559E-03     10.9182E-03
            1118            1556     11.2559E-03     10.9182E-03
            1119            1557     9.82411E-03     10.0287E-03
            1118            1557     9.82411E-03     10.0287E-03
            1135            1557     9.82411E-03     10.0287E-03
            1136            1557     9.82411E-03     10.0287E-03
            1120            1558     10.0028E-03     10.0312E-03
            1136            1558     10.0028E-03     10.0312E-03
            1137            1558     10.0028E-03     10.0312E-03
            1119            1558     10.0028E-03     10.0312E-03
            1138            1559     9.76760E-03     9.84345E-03
            1120            1559     9.76760E-03     9.84345E-03
            1137            1559     9.76760E-03     9.84345E-03
            1121            1559     9.76760E-03     9.84345E-03
            1121            1560     9.66725E-03     9.72321E-03
            1138            1560     9.66725E-03     9.72321E-03
            1139            1560     9.66725E-03     9.72321E-03
            1122            1560     9.66725E-03     9.72321E-03
            1140            1561     9.54169E-03     9.59704E-03
            1123            1561     9.54169E-03     9.59704E-03
            1122            1561     9.54169E-03     9.59704E-03
            1139            1561     9.54169E-03     9.59704E-03
            1124            1562     9.43783E-03     9.48652E-03
            1123            1562     9.43783E-03     9.48652E-03
            1141            1562     9.43783E-03     9.48652E-03
            1140            1562     9.43783E-03     9.48652E-03
            1124            1563     9.34135E-03     9.38477E-03
            1125            1563     9.34135E-03     9.38477E-03
            1141            1563     9.34135E-03     9.38477E-03
            1142            1563     9.34135E-03     9.38477E-03
            1125            1564     9.25724E-03     9.29460E-03
            1126            1564     9.25724E-03     9.29460E-03
            1143            1564     9.25724E-03     9.29460E-03
            1142            1564     9.25724E-03     9.29460E-03
            1144            1565     9.18366E-03     9.21505E-03
            1126            1565     9.18366E-03     9.21505E-03
            1127            1565     9.18366E-03     9.21505E-03
            1143            1565     9.18366E-03     9.21505E-03
            1145            1566     9.12167E-03     9.14653E-03
            1127            1566     9.12167E-03     9.14653E-03
            1128            1566     9.12167E-03     9.14653E-03
            1144            1566     9.12167E-03     9.14653E-03
            1128            1567     9.07070E-03     9.08944E-03
            1146            1567     9.07070E-03     9.08944E-03
            1145            1567     9.07070E-03     9.08944E-03
            1129            1567     9.07070E-03     9.08944E-03
            1129            1568     9.03131E-03     9.04258E-03
            1146            1568     9.03131E-03     9.04258E-03
            1147            1568     9.03131E-03     9.04258E-03
            1130            1568     9.03131E-03     9.04258E-03
            1147            1569     9.00360E-03     9.00970E-03
            1131            1569     9.00360E-03     9.00970E-03
            1130            1569     9.00360E-03     9.00970E-03
            1148            1569     9.00360E-03     9.00970E-03
            1148            1570     8.98620E-03     8.98540E-03
            1149            1570     8.98620E-03     8.98540E-03
            1132            1570     8.98620E-03     8.98540E-03
            1131            1570     8.98620E-03     8.98540E-03
            1134            1571     13.5660E-03     14.8710E-03
            1133            1571     13.5660E-03     14.8710E-03
            1151            1571     13.5660E-03     14.8710E-03
            1150            1571     13.5660E-03     14.8710E-03
            1151            1572     15.8767E-03     15.5886E-03
            1134            1572     15.8767E-03     15.5886E-03
            1152            1572     15.8767E-03     15.5886E-03
            1135            1572     15.8767E-03     15.5886E-03
            1136            1573     16.4635E-03     16.7083E-03
            1153            1573     16.4635E-03     16.7083E-03
            1135            1573     16.4635E-03     16.7083E-03
            1152            1573     16.4635E-03     16.7083E-03
            1137            1574     16.8709E-03     17.0060E-03
            1136            1574     16.8709E-03     17.0060E-03
            1154            1574     16.8709E-03     17.0060E-03
            1153            1574     16.8709E-03     17.0060E-03
            1154            1575     16.5589E-03     16.7321E-03
            1155            1575     16.5589E-03     16.7321E-03
            1137            1575     16.5589E-03     16.7321E-03
            1138            1575     16.5589E-03     16.7321E-03
            1138            1576     16.0934E-03     16.1772E-03
            1155            1576     16.0934E-03     16.1772E-03
            1139            1576     16.0934E-03     16.1772E-03
            1156            1576     16.0934E-03     16.1772E-03
            1156            1577     15.4613E-03     15.5001E-03
            1140            1577     15.4613E-03     15.5001E-03
            1157            1577     15.4613E-03     15.5001E-03
            1139            1577     15.4613E-03     15.5001E-03
            1141            1578     14.8345E-03     14.7980E-03
            1140            1578     14.8345E-03     14.7980E-03
            1158            1578     14.8345E-03     14.7980E-03
            1157            1578     14.8345E-03     14.7980E-03
            1142            1579     14.1781E-03     14.0771E-03
            1159            1579     14.1781E-03     14.0771E-03
            1158            1579     14.1781E-03     14.0771E-03
            1141            1579     14.1781E-03     14.0771E-03
            1160            1580     13.5566E-03     13.3981E-03
            1143            1580     13.5566E-03     13.3981E-03
            1142            1580     13.5566E-03     13.3981E-03
            1159            1580     13.5566E-03     13.3981E-03
            1143            1581     12.9504E-03     12.7501E-03
            1160            1581     12.9504E-03     12.7501E-03
            1144            1581     12.9504E-03     12.7501E-03
            1161            1581     12.9504E-03     12.7501E-03
            1144            1582     12.3988E-03     12.1691E-03
            1145            1582     12.3988E-03     12.1691E-03
            1161            1582     12.3988E-03     12.1691E-03
            1162            1582     12.3988E-03     12.1691E-03
            1145            1583     11.8863E-03     11.6680E-03
            1146            1583     11.8863E-03     11.6680E-03
            1163            1583     11.8863E-03     11.6680E-03
            1162            1583     11.8863E-03     11.6680E-03
            1147            1584     11.4422E-03     11.2562E-03
            1164            1584     11.4422E-03     11.2562E-03
            1163            1584     11.4422E-03     11.2562E-03
            1146            1584     11.4422E-03     11.2562E-03
            1164            1585     11.0503E-03     11.0309E-03
            1147            1585     11.0503E-03     11.0309E-03
            1165            1585     11.0503E-03     11.0309E-03
            1148            1585     11.0503E-03     11.0309E-03
            1149            1586     10.4390E-03     11.1842E-03
            1166            1586     10.4390E-03     11.1842E-03
            1165            1586     10.4390E-03     11.1842E-03
            1148            1586     10.4390E-03     11.1842E-03
            1168            1587     19.0882E-03     17.9523E-03
            1167            1587     19.0882E-03     17.9523E-03
            1151            1587     19.0882E-03     17.9523E-03
            1150            1587     19.0882E-03     17.9523E-03
            1169            1588     23.6543E-03     21.0299E-03
            1168            1588     23.6543E-03     21.0299E-03
            1151            1588     23.6543E-03     21.0299E-03
            1152            1588     23.6543E-03     21.0299E-03
            1153            1589     26.0140E-03     23.4394E-03
            1170            1589     26.0140E-03     23.4394E-03
            1169            1589     26.0140E-03     23.4394E-03
            1152            1589     26.0140E-03     23.4394E-03
            1154            1590     26.0915E-03     23.6302E-03
            1153            1590     26.0915E-03     23.6302E-03
            1170            1590     26.0915E-03     23.6302E-03
            1171            1590     26.0915E-03     23.6302E-03
            1154            1591     25.2258E-03     22.8436E-03
            1171            1591     25.2258E-03     22.8436E-03
            1172            1591     25.2258E-03     22.8436E-03
            1155            1591     25.2258E-03     22.8436E-03
            1156            1592     23.9225E-03     21.6719E-03
            1172            1592     23.9225E-03     21.6719E-03
            1173            1592     23.9225E-03     21.6719E-03
            1155            1592     23.9225E-03     21.6719E-03
            1157            1593     22.5446E-03     20.3630E-03
            1173            1593     22.5446E-03     20.3630E-03
            1174            1593     22.5446E-03     20.3630E-03
            1156            1593     22.5446E-03     20.3630E-03
            1158            1594     21.1158E-03     19.0375E-03
            1157            1594     21.1158E-03     19.0375E-03
            1175            1594     21.1158E-03     19.0375E-03
            1174            1594     21.1158E-03     19.0375E-03
            1158            1595     19.7208E-03     17.7386E-03
            1176            1595     19.7208E-03     17.7386E-03
            1175            1595     19.7208E-03     17.7386E-03
            1159            1595     19.7208E-03     17.7386E-03
            1160            1596     18.3582E-03     16.4989E-03
            1176            1596     18.3582E-03     16.4989E-03
            1177            1596     18.3582E-03     16.4989E-03
            1159            1596     18.3582E-03     16.4989E-03
            1177            1597     17.0613E-03     15.3460E-03
            1161            1597     17.0613E-03     15.3460E-03
            1160            1597     17.0613E-03     15.3460E-03
            1178            1597     17.0613E-03     15.3460E-03
            1162            1598     15.8378E-03     14.3107E-03
            1178            1598     15.8378E-03     14.3107E-03
            1179            1598     15.8378E-03     14.3107E-03
            1161            1598     15.8378E-03     14.3107E-03
            1180            1599     14.7291E-03     13.4259E-03
            1179            1599     14.7291E-03     13.4259E-03
            1162            1599     14.7291E-03     13.4259E-03
            1163            1599     14.7291E-03     13.4259E-03
            1163            1600     13.7059E-03     12.7478E-03
            1164            1600     13.7059E-03     12.7478E-03
            1181            1600     13.7059E-03     12.7478E-03
            1180            1600     13.7059E-03     12.7478E-03
            1181            1601     12.7298E-03     12.5062E-03
            1182            1601     12.7298E-03     12.5062E-03
            1164            1601     12.7298E-03     12.5062E-03
            1165            1601     12.7298E-03     12.5062E-03
            1183            1602     11.9668E-03     12.7673E-03
            1165            1602     11.9668E-03     12.7673E-03
            1182            1602     11.9668E-03     12.7673E-03
            1166            1602     11.9668E-03     12.7673E-03
            1184            1603     24.7233E-03     24.7111E-03
            1167            1603     24.7233E-03     24.7111E-03
            1185            1603     24.7233E-03     24.7111E-03
            1168            1603     24.7233E-03     24.7111E-03
            1186            1604     25.6822E-03     25.6126E-03
            1185            1604     25.6822E-03     25.6126E-03
            1168            1604     25.6822E-03     25.6126E-03
            1169            1604     25.6822E-03     25.6126E-03
            1186            1605     27.5372E-03     26.7425E-03
            1187            1605     27.5372E-03     26.7425E-03
            1169            1605     27.5372E-03     26.7425E-03
            1170            1605     27.5372E-03     26.7425E-03
            1187            1606     26.6967E-03     25.7679E-03
            1188            1606     26.6967E-03     25.7679E-03
            1170            1606     26.6967E-03     25.7679E-03
            1171            1606     26.6967E-03     25.7679E-03
            1188            1607     25.1216E-03     24.2180E-03
            1189            1607     25.1216E-03     24.2180E-03
            1171            1607     25.1216E-03     24.2180E-03
            1172            1607     25.1216E-03     24.2180E-03
            1173            1608     23.4455E-03     22.5530E-03
            1189            1608     23.4455E-03     22.5530E-03
            1190            1608     23.4455E-03     22.5530E-03
            1172            1608     23.4455E-03     22.5530E-03
            1190            1609     21.7718E-03     20.9095E-03
            1191            1609     21.7718E-03     20.9095E-03
            1173            1609     21.7718E-03     20.9095E-03
            1174            1609     21.7718E-03     20.9095E-03
            1175            1610     20.1748E-03     19.3382E-03
            1191            1610     20.1748E-03     19.3382E-03
            1192            1610     20.1748E-03     19.3382E-03
            1174            1610     20.1748E-03     19.3382E-03
            1176            1611     18.6470E-03     17.8458E-03
            1192            1611     18.6470E-03     17.8458E-03
            1193            1611     18.6470E-03     17.8458E-03
            1175            1611     18.6470E-03     17.8458E-03
            1193            1612     17.1939E-03     16.4355E-03
            1194            1612     17.1939E-03     16.4355E-03
            1176            1612     17.1939E-03     16.4355E-03
            1177            1612     17.1939E-03     16.4355E-03
            1178            1613     15.8297E-03     15.1170E-03
            1194            1613     15.8297E-03     15.1170E-03
            1195            1613     15.8297E-03     15.1170E-03
            1177            1613     15.8297E-03     15.1170E-03
            1179            1614     14.5579E-03     13.9257E-03
            1195            1614     14.5579E-03     13.9257E-03
            1196            1614     14.5579E-03     13.9257E-03
            1178            1614     14.5579E-03     13.9257E-03
            1196            1615     13.4223E-03     12.8873E-03
            1197            1615     13.4223E-03     12.8873E-03
            1180            1615     13.4223E-03     12.8873E-03
            1179            1615     13.4223E-03     12.8873E-03
            1180            1616     12.4202E-03     12.0759E-03
            1197            1616     12.4202E-03     12.0759E-03
            1181            1616     12.4202E-03     12.0759E-03
            1198            1616     12.4202E-03     12.0759E-03
            1181            1617     11.6458E-03     11.6047E-03
            1199            1617     11.6458E-03     11.6047E-03
            1198            1617     11.6458E-03     11.6047E-03
            1182            1617     11.6458E-03     11.6047E-03
            1200            1618     11.5234E-03     11.0884E-03
            1182            1618     11.5234E-03     11.0884E-03
            1199            1618     11.5234E-03     11.0884E-03
            1183            1618     11.5234E-03     11.0884E-03
            1201            1619     31.5414E-03     32.2108E-03
            1184            1619     31.5414E-03     32.2108E-03
            1185            1619     31.5414E-03     32.2108E-03
            1202            1619     31.5414E-03     32.2108E-03
            1185            1620     28.9373E-03     29.8146E-03
            1203            1620     28.9373E-03     29.8146E-03
            1202            1620     28.9373E-03     29.8146E-03
            1186            1620     28.9373E-03     29.8146E-03
            1186            1621     27.9309E-03     28.6638E-03
            1203            1621     27.9309E-03     28.6638E-03
            1204            1621     27.9309E-03     28.6638E-03
            1187            1621     27.9309E-03     28.6638E-03
            1205            1622     26.2769E-03     26.8670E-03
            1204            1622     26.2769E-03     26.8670E-03
            1188            1622     26.2769E-03     26.8670E-03
            1187            1622     26.2769E-03     26.8670E-03
            1188            1623     24.4336E-03     24.9890E-03
            1205            1623     24.4336E-03     24.9890E-03
            1189            1623     24.4336E-03     24.9890E-03
            1206            1623     24.4336E-03     24.9890E-03
            1190            1624     22.6101E-03     23.1094E-03
            1189            1624     22.6101E-03     23.1094E-03
            1207            1624     22.6101E-03     23.1094E-03
            1206            1624     22.6101E-03     23.1094E-03
            1191            1625     20.8290E-03     21.3238E-03
            1207            1625     20.8290E-03     21.3238E-03
            1208            1625     20.8290E-03     21.3238E-03
            1190            1625     20.8290E-03     21.3238E-03
            1209            1626     19.1473E-03     19.6224E-03
            1192            1626     19.1473E-03     19.6224E-03
            1191            1626     19.1473E-03     19.6224E-03
            1208            1626     19.1473E-03     19.6224E-03
            1210            1627     17.5359E-03     17.9994E-03
            1209            1627     17.5359E-03     17.9994E-03
            1192            1627     17.5359E-03     17.9994E-03
            1193            1627     17.5359E-03     17.9994E-03
            1193            1628     16.0180E-03     16.4574E-03
            1211            1628     16.0180E-03     16.4574E-03
            1210            1628     16.0180E-03     16.4574E-03
            1194            1628     16.0180E-03     16.4574E-03
            1194            1629     14.5851E-03     15.0043E-03
            1211            1629     14.5851E-03     15.0043E-03
            1195            1629     14.5851E-03     15.0043E-03
            1212            1629     14.5851E-03     15.0043E-03
            1195            1630     13.2827E-03     13.6593E-03
            1213            1630     13.2827E-03     13.6593E-03
            1212            1630     13.2827E-03     13.6593E-03
            1196            1630     13.2827E-03     13.6593E-03
            1197            1631     12.1072E-03     12.4709E-03
            1196            1631     12.1072E-03     12.4709E-03
            1213            1631     12.1072E-03     12.4709E-03
            1214            1631     12.1072E-03     12.4709E-03
            1215            1632     11.1749E-03     11.4876E-03
            1197            1632     11.1749E-03     11.4876E-03
            1198            1632     11.1749E-03     11.4876E-03
            1214            1632     11.1749E-03     11.4876E-03
            1198            1633     10.7511E-03     10.4642E-03
            1215            1633     10.7511E-03     10.4642E-03
            1216            1633     10.7511E-03     10.4642E-03
            1199            1633     10.7511E-03     10.4642E-03
            1217            1634     10.6273E-03     9.42852E-03
            1216            1634     10.6273E-03     9.42852E-03
            1199            1634     10.6273E-03     9.42852E-03
            1200            1634     10.6273E-03     9.42852E-03
            1201            1635     38.5899E-03     38.9529E-03
            1218            1635     38.5899E-03     38.9529E-03
            1219            1635     38.5899E-03     38.9529E-03
            1202            1635     38.5899E-03     38.9529E-03
            1219            1636     31.5599E-03     33.0652E-03
            1203            1636     31.5599E-03     33.0652E-03
            1202            1636     31.5599E-03     33.0652E-03
            1220            1636     31.5599E-03     33.0652E-03
            1204            1637     27.2365E-03     29.3488E-03
            1220            1637     27.2365E-03     29.3488E-03
            1221            1637     27.2365E-03     29.3488E-03
            1203            1637     27.2365E-03     29.3488E-03
            1221            1638     25.0829E-03     27.1369E-03
            1222            1638     25.0829E-03     27.1369E-03
            1205            1638     25.0829E-03     27.1369E-03
            1204            1638     25.0829E-03     27.1369E-03
            1205            1639     23.2304E-03     25.1695E-03
            1223            1639     23.2304E-03     25.1695E-03
            1206            1639     23.2304E-03     25.1695E-03
            1222            1639     23.2304E-03     25.1695E-03
            1223            1640     21.4078E-03     23.3287E-03
            1206            1640     21.4078E-03     23.3287E-03
            1207            1640     21.4078E-03     23.3287E-03
            1224            1640     21.4078E-03     23.3287E-03
            1225            1641     19.6866E-03     21.5582E-03
            1208            1641     19.6866E-03     21.5582E-03
            1224            1641     19.6866E-03     21.5582E-03
            1207            1641     19.6866E-03     21.5582E-03
            1225            1642     17.9835E-03     19.8290E-03
            1209            1642     17.9835E-03     19.8290E-03
            1208            1642     17.9835E-03     19.8290E-03
            1226            1642     17.9835E-03     19.8290E-03
            1210            1643     16.3549E-03     18.1533E-03
            1209            1643     16.3549E-03     18.1533E-03
            1227            1643     16.3549E-03     18.1533E-03
            1226            1643     16.3549E-03     18.1533E-03
            1227            1644     14.7869E-03     16.5241E-03
            1228            1644     14.7869E-03     16.5241E-03
            1211            1644     14.7869E-03     16.5241E-03
            1210            1644     14.7869E-03     16.5241E-03
            1228            1645     13.3210E-03     14.9689E-03
            1211            1645     13.3210E-03     14.9689E-03
            1229            1645     13.3210E-03     14.9689E-03
            1212            1645     13.3210E-03     14.9689E-03
            1230            1646     11.9676E-03     13.4982E-03
            1213            1646     11.9676E-03     13.4982E-03
            1212            1646     11.9676E-03     13.4982E-03
            1229            1646     11.9676E-03     13.4982E-03
            1213            1647     10.7997E-03     12.1476E-03
            1214            1647     10.7997E-03     12.1476E-03
            1231            1647     10.7997E-03     12.1476E-03
            1230            1647     10.7997E-03     12.1476E-03
            1214            1648     9.88286E-03     10.9289E-03
            1231            1648     9.88286E-03     10.9289E-03
            1232            1648     9.88286E-03     10.9289E-03
            1215            1648     9.88286E-03     10.9289E-03
            1215            1649     9.33772E-03     9.77083E-03
            1232            1649     9.33772E-03     9.77083E-03
            1233            1649     9.33772E-03     9.77083E-03
            1216            1649     9.33772E-03     9.77083E-03
            1233            1650     9.32170E-03     8.71615E-03
            1216            1650     9.32170E-03     8.71615E-03
            1217            1650     9.32170E-03     8.71615E-03
            1234            1650     9.32170E-03     8.71615E-03
            1236            1651     42.5126E-03     45.2547E-03
            1219            1651     42.5126E-03     45.2547E-03
            1235            1651     42.5126E-03     45.2547E-03
            1218            1651     42.5126E-03     45.2547E-03
            1237            1652     31.1175E-03     34.4975E-03
            1220            1652     31.1175E-03     34.4975E-03
            1236            1652     31.1175E-03     34.4975E-03
            1219            1652     31.1175E-03     34.4975E-03
            1237            1653     26.2454E-03     29.6141E-03
            1220            1653     26.2454E-03     29.6141E-03
            1221            1653     26.2454E-03     29.6141E-03
            1238            1653     26.2454E-03     29.6141E-03
            1221            1654     23.7154E-03     27.0952E-03
            1238            1654     23.7154E-03     27.0952E-03
            1222            1654     23.7154E-03     27.0952E-03
            1239            1654     23.7154E-03     27.0952E-03
            1223            1655     21.7790E-03     25.1405E-03
            1240            1655     21.7790E-03     25.1405E-03
            1222            1655     21.7790E-03     25.1405E-03
            1239            1655     21.7790E-03     25.1405E-03
            1224            1656     20.0741E-03     23.4090E-03
            1223            1656     20.0741E-03     23.4090E-03
            1241            1656     20.0741E-03     23.4090E-03
            1240            1656     20.0741E-03     23.4090E-03
            1241            1657     18.3770E-03     21.6885E-03
            1242            1657     18.3770E-03     21.6885E-03
            1224            1657     18.3770E-03     21.6885E-03
            1225            1657     18.3770E-03     21.6885E-03
            1226            1658     16.7219E-03     19.9894E-03
            1242            1658     16.7219E-03     19.9894E-03
            1243            1658     16.7219E-03     19.9894E-03
            1225            1658     16.7219E-03     19.9894E-03
            1226            1659     15.0815E-03     18.2878E-03
            1243            1659     15.0815E-03     18.2878E-03
            1227            1659     15.0815E-03     18.2878E-03
            1244            1659     15.0815E-03     18.2878E-03
            1227            1660     13.5008E-03     16.6246E-03
            1245            1660     13.5008E-03     16.6246E-03
            1228            1660     13.5008E-03     16.6246E-03
            1244            1660     13.5008E-03     16.6246E-03
            1228            1661     11.9999E-03     14.9912E-03
            1245            1661     11.9999E-03     14.9912E-03
            1246            1661     11.9999E-03     14.9912E-03
            1229            1661     11.9999E-03     14.9912E-03
            1229            1662     10.6223E-03     13.4283E-03
            1230            1662     10.6223E-03     13.4283E-03
            1246            1662     10.6223E-03     13.4283E-03
            1247            1662     10.6223E-03     13.4283E-03
            1231            1663     9.43163E-03     11.9301E-03
            1230            1663     9.43163E-03     11.9301E-03
            1247            1663     9.43163E-03     11.9301E-03
            1248            1663     9.43163E-03     11.9301E-03
            1231            1664     8.49353E-03     10.5102E-03
            1248            1664     8.49353E-03     10.5102E-03
            1249            1664     8.49353E-03     10.5102E-03
            1232            1664     8.49353E-03     10.5102E-03
            1232            1665     7.79572E-03     9.35252E-03
            1233            1665     7.79572E-03     9.35252E-03
            1250            1665     7.79572E-03     9.35252E-03
            1249            1665     7.79572E-03     9.35252E-03
            1234            1666     7.54614E-03     8.38292E-03
            1251            1666     7.54614E-03     8.38292E-03
            1233            1666     7.54614E-03     8.38292E-03
            1250            1666     7.54614E-03     8.38292E-03
            1235            1667     45.7870E-03     46.7758E-03
            1236            1667     45.7870E-03     46.7758E-03
            1252            1667     45.7870E-03     46.7758E-03
            1253            1667     45.7870E-03     46.7758E-03
            1237            1668     42.1309E-03     42.3828E-03
            1254            1668     42.1309E-03     42.3828E-03
            1253            1668     42.1309E-03     42.3828E-03
            1236            1668     42.1309E-03     42.3828E-03
            1254            1669     40.1127E-03     40.5088E-03
            1237            1669     40.1127E-03     40.5088E-03
            1255            1669     40.1127E-03     40.5088E-03
            1238            1669     40.1127E-03     40.5088E-03
            1238            1670     38.1178E-03     38.7529E-03
            1239            1670     38.1178E-03     38.7529E-03
            1255            1670     38.1178E-03     38.7529E-03
            1256            1670     38.1178E-03     38.7529E-03
            1239            1671     36.0014E-03     36.7756E-03
            1257            1671     36.0014E-03     36.7756E-03
            1240            1671     36.0014E-03     36.7756E-03
            1256            1671     36.0014E-03     36.7756E-03
            1241            1672     33.7212E-03     34.6000E-03
            1240            1672     33.7212E-03     34.6000E-03
            1258            1672     33.7212E-03     34.6000E-03
            1257            1672     33.7212E-03     34.6000E-03
            1259            1673     31.2923E-03     32.2098E-03
            1241            1673     31.2923E-03     32.2098E-03
            1258            1673     31.2923E-03     32.2098E-03
            1242            1673     31.2923E-03     32.2098E-03
            1259            1674     28.7885E-03     29.7332E-03
            1260            1674     28.7885E-03     29.7332E-03
            1243            1674     28.7885E-03     29.7332E-03
            1242            1674     28.7885E-03     29.7332E-03
            1260            1675     26.2616E-03     27.2143E-03
            1244            1675     26.2616E-03     27.2143E-03
            1243            1675     26.2616E-03     27.2143E-03
            1261            1675     26.2616E-03     27.2143E-03
            1245            1676     23.7587E-03     24.7034E-03
            1261            1676     23.7587E-03     24.7034E-03
            1262            1676     23.7587E-03     24.7034E-03
            1244            1676     23.7587E-03     24.7034E-03
            1245            1677     21.3174E-03     22.2553E-03
            1263            1677     21.3174E-03     22.2553E-03
            1262            1677     21.3174E-03     22.2553E-03
            1246            1677     21.3174E-03     22.2553E-03
            1264            1678     19.0142E-03     19.8940E-03
            1247            1678     19.0142E-03     19.8940E-03
            1263            1678     19.0142E-03     19.8940E-03
            1246            1678     19.0142E-03     19.8940E-03
            1264            1679     16.8903E-03     17.7020E-03
            1248            1679     16.8903E-03     17.7020E-03
            1247            1679     16.8903E-03     17.7020E-03
            1265            1679     16.8903E-03     17.7020E-03
            1265            1680     15.0484E-03     15.7154E-03
            1266            1680     15.0484E-03     15.7154E-03
            1249            1680     15.0484E-03     15.7154E-03
            1248            1680     15.0484E-03     15.7154E-03
            1266            1681     13.5485E-03     14.2127E-03
            1249            1681     13.5485E-03     14.2127E-03
            1267            1681     13.5485E-03     14.2127E-03
            1250            1681     13.5485E-03     14.2127E-03
            1250            1682     11.9001E-03     13.6875E-03
            1251            1682     11.9001E-03     13.6875E-03
            1268            1682     11.9001E-03     13.6875E-03
            1267            1682     11.9001E-03     13.6875E-03
            1270            1683     52.0126E-03     50.1203E-03
            1252            1683     52.0126E-03     50.1203E-03
            1253            1683     52.0126E-03     50.1203E-03
            1269            1683     52.0126E-03     50.1203E-03
            1254            1684     55.6207E-03     53.5834E-03
            1253            1684     55.6207E-03     53.5834E-03
            1270            1684     55.6207E-03     53.5834E-03
            1271            1684     55.6207E-03     53.5834E-03
            1271            1685     56.1602E-03     54.0271E-03
            1254            1685     56.1602E-03     54.0271E-03
            1272            1685     56.1602E-03     54.0271E-03
            1255            1685     56.1602E-03     54.0271E-03
            1255            1686     54.3900E-03     52.4397E-03
            1273            1686     54.3900E-03     52.4397E-03
            1272            1686     54.3900E-03     52.4397E-03
            1256            1686     54.3900E-03     52.4397E-03
            1274            1687     51.6673E-03     49.8457E-03
            1273            1687     51.6673E-03     49.8457E-03
            1257            1687     51.6673E-03     49.8457E-03
            1256            1687     51.6673E-03     49.8457E-03
            1274            1688     48.3857E-03     46.6573E-03
            1257            1688     48.3857E-03     46.6573E-03
            1275            1688     48.3857E-03     46.6573E-03
            1258            1688     48.3857E-03     46.6573E-03
            1258            1689     44.8674E-03     43.2374E-03
            1276            1689     44.8674E-03     43.2374E-03
            1275            1689     44.8674E-03     43.2374E-03
            1259            1689     44.8674E-03     43.2374E-03
            1277            1690     41.2740E-03     39.6918E-03
            1260            1690     41.2740E-03     39.6918E-03
            1259            1690     41.2740E-03     39.6918E-03
            1276            1690     41.2740E-03     39.6918E-03
            1260            1691     37.6552E-03     36.1366E-03
            1277            1691     37.6552E-03     36.1366E-03
            1278            1691     37.6552E-03     36.1366E-03
            1261            1691     37.6552E-03     36.1366E-03
            1262            1692     34.0790E-03     32.6141E-03
            1279            1692     34.0790E-03     32.6141E-03
            1278            1692     34.0790E-03     32.6141E-03
            1261            1692     34.0790E-03     32.6141E-03
            1262            1693     30.5814E-03     29.1890E-03
            1263            1693     30.5814E-03     29.1890E-03
            1279            1693     30.5814E-03     29.1890E-03
            1280            1693     30.5814E-03     29.1890E-03
            1280            1694     27.2126E-03     25.9218E-03
            1263            1694     27.2126E-03     25.9218E-03
            1281            1694     27.2126E-03     25.9218E-03
            1264            1694     27.2126E-03     25.9218E-03
            1265            1695     24.0519E-03     22.9218E-03
            1281            1695     24.0519E-03     22.9218E-03
            1282            1695     24.0519E-03     22.9218E-03
            1264            1695     24.0519E-03     22.9218E-03
            1265            1696     21.1448E-03     20.3432E-03
            1282            1696     21.1448E-03     20.3432E-03
            1266            1696     21.1448E-03     20.3432E-03
            1283            1696     21.1448E-03     20.3432E-03
            1284            1697     18.5304E-03     18.6231E-03
            1266            1697     18.5304E-03     18.6231E-03
            1283            1697     18.5304E-03     18.6231E-03
            1267            1697     18.5304E-03     18.6231E-03
            1285            1698     16.5037E-03     18.2440E-03
            1284            1698     16.5037E-03     18.2440E-03
            1267            1698     16.5037E-03     18.2440E-03
            1268            1698     16.5037E-03     18.2440E-03
            1287            1699     59.1005E-03     59.8846E-03
            1269            1699     59.1005E-03     59.8846E-03
            1270            1699     59.1005E-03     59.8846E-03
            1286            1699     59.1005E-03     59.8846E-03
            1271            1700     59.3057E-03     59.7802E-03
            1288            1700     59.3057E-03     59.7802E-03
            1287            1700     59.3057E-03     59.7802E-03
            1270            1700     59.3057E-03     59.7802E-03
            1289            1701     58.9156E-03     58.8616E-03
            1288            1701     58.9156E-03     58.8616E-03
            1272            1701     58.9156E-03     58.8616E-03
            1271            1701     58.9156E-03     58.8616E-03
            1273            1702     56.3160E-03     55.9460E-03
            1289            1702     56.3160E-03     55.9460E-03
            1290            1702     56.3160E-03     55.9460E-03
            1272            1702     56.3160E-03     55.9460E-03
            1273            1703     52.7251E-03     52.2442E-03
            1274            1703     52.7251E-03     52.2442E-03
            1290            1703     52.7251E-03     52.2442E-03
            1291            1703     52.7251E-03     52.2442E-03
            1291            1704     48.7472E-03     48.2649E-03
            1274            1704     48.7472E-03     48.2649E-03
            1275            1704     48.7472E-03     48.2649E-03
            1292            1704     48.7472E-03     48.2649E-03
            1276            1705     44.7328E-03     44.2371E-03
            1275            1705     44.7328E-03     44.2371E-03
            1292            1705     44.7328E-03     44.2371E-03
            1293            1705     44.7328E-03     44.2371E-03
            1276            1706     40.7175E-03     40.2376E-03
            1293            1706     40.7175E-03     40.2376E-03
            1294            1706     40.7175E-03     40.2376E-03
            1277            1706     40.7175E-03     40.2376E-03
            1278            1707     36.7789E-03     36.3006E-03
            1295            1707     36.7789E-03     36.3006E-03
            1277            1707     36.7789E-03     36.3006E-03
            1294            1707     36.7789E-03     36.3006E-03
            1296            1708     32.9140E-03     32.4501E-03
            1279            1708     32.9140E-03     32.4501E-03
            1278            1708     32.9140E-03     32.4501E-03
            1295            1708     32.9140E-03     32.4501E-03
            1297            1709     29.1604E-03     28.7069E-03
            1280            1709     29.1604E-03     28.7069E-03
            1296            1709     29.1604E-03     28.7069E-03
            1279            1709     29.1604E-03     28.7069E-03
            1297            1710     25.5359E-03     25.1321E-03
            1298            1710     25.5359E-03     25.1321E-03
            1281            1710     25.5359E-03     25.1321E-03
            1280            1710     25.5359E-03     25.1321E-03
            1298            1711     22.1055E-03     21.8121E-03
            1282            1711     22.1055E-03     21.8121E-03
            1281            1711     22.1055E-03     21.8121E-03
            1299            1711     22.1055E-03     21.8121E-03
            1299            1712     18.8953E-03     18.9667E-03
            1300            1712     18.8953E-03     18.9667E-03
            1282            1712     18.8953E-03     18.9667E-03
            1283            1712     18.8953E-03     18.9667E-03
            1300            1713     16.1673E-03     16.9492E-03
            1283            1713     16.1673E-03     16.9492E-03
            1301            1713     16.1673E-03     16.9492E-03
            1284            1713     16.1673E-03     16.9492E-03
            1301            1714     14.8233E-03     15.3199E-03
            1285            1714     14.8233E-03     15.3199E-03
            1302            1714     14.8233E-03     15.3199E-03
            1284            1714     14.8233E-03     15.3199E-03
            1287            1715     66.9698E-03     67.9704E-03
            1303            1715     66.9698E-03     67.9704E-03
            1286            1715     66.9698E-03     67.9704E-03
            1304            1715     66.9698E-03     67.9704E-03
            1304            1716     63.4525E-03     65.2134E-03
            1287            1716     63.4525E-03     65.2134E-03
            1305            1716     63.4525E-03     65.2134E-03
            1288            1716     63.4525E-03     65.2134E-03
            1305            1717     60.7973E-03     62.1695E-03
            1306            1717     60.7973E-03     62.1695E-03
            1288            1717     60.7973E-03     62.1695E-03
            1289            1717     60.7973E-03     62.1695E-03
            1306            1718     57.1260E-03     58.1322E-03
            1307            1718     57.1260E-03     58.1322E-03
            1289            1718     57.1260E-03     58.1322E-03
            1290            1718     57.1260E-03     58.1322E-03
            1307            1719     52.8038E-03     53.6696E-03
            1308            1719     52.8038E-03     53.6696E-03
            1291            1719     52.8038E-03     53.6696E-03
            1290            1719     52.8038E-03     53.6696E-03
            1292            1720     48.5124E-03     49.2553E-03
            1308            1720     48.5124E-03     49.2553E-03
            1309            1720     48.5124E-03     49.2553E-03
            1291            1720     48.5124E-03     49.2553E-03
            1310            1721     44.1945E-03     44.8823E-03
            1292            1721     44.1945E-03     44.8823E-03
            1293            1721     44.1945E-03     44.8823E-03
            1309            1721     44.1945E-03     44.8823E-03
            1293            1722     39.9690E-03     40.6216E-03
            1310            1722     39.9690E-03     40.6216E-03
            1311            1722     39.9690E-03     40.6216E-03
            1294            1722     39.9690E-03     40.6216E-03
            1295            1723     35.8152E-03     36.4475E-03
            1311            1723     35.8152E-03     36.4475E-03
            1294            1723     35.8152E-03     36.4475E-03
            1312            1723     35.8152E-03     36.4475E-03
            1312            1724     31.7571E-03     32.3669E-03
            1313            1724     31.7571E-03     32.3669E-03
            1295            1724     31.7571E-03     32.3669E-03
            1296            1724     31.7571E-03     32.3669E-03
            1296            1725     27.7928E-03     28.3912E-03
            1313            1725     27.7928E-03     28.3912E-03
            1314            1725     27.7928E-03     28.3912E-03
            1297            1725     27.7928E-03     28.3912E-03
            1315            1726     23.9598E-03     24.5579E-03
            1314            1726     23.9598E-03     24.5579E-03
            1297            1726     23.9598E-03     24.5579E-03
            1298            1726     23.9598E-03     24.5579E-03
            1298            1727     20.2923E-03     20.9376E-03
            1315            1727     20.2923E-03     20.9376E-03
            1316            1727     20.2923E-03     20.9376E-03
            1299            1727     20.2923E-03     20.9376E-03
            1300            1728     16.9166E-03     17.7132E-03
            1299            1728     16.9166E-03     17.7132E-03
            1316            1728     16.9166E-03     17.7132E-03
            1317            1728     16.9166E-03     17.7132E-03
            1318            1729     14.2774E-03     14.8401E-03
            1300            1729     14.2774E-03     14.8401E-03
            1301            1729     14.2774E-03     14.8401E-03
            1317            1729     14.2774E-03     14.8401E-03
            1318            1730     12.6880E-03     12.2842E-03
            1319            1730     12.6880E-03     12.2842E-03
            1302            1730     12.6880E-03     12.2842E-03
            1301            1730     12.6880E-03     12.2842E-03
            1320            1731     73.8590E-03     75.6588E-03
            1321            1731     73.8590E-03     75.6588E-03
            1303            1731     73.8590E-03     75.6588E-03
            1304            1731     73.8590E-03     75.6588E-03
            1304            1732     67.6957E-03     69.5841E-03
            1305            1732     67.6957E-03     69.5841E-03
            1322            1732     67.6957E-03     69.5841E-03
            1321            1732     67.6957E-03     69.5841E-03
            1305            1733     61.8026E-03     63.9921E-03
            1322            1733     61.8026E-03     63.9921E-03
            1306            1733     61.8026E-03     63.9921E-03
            1323            1733     61.8026E-03     63.9921E-03
            1306            1734     56.5765E-03     58.8007E-03
            1307            1734     56.5765E-03     58.8007E-03
            1323            1734     56.5765E-03     58.8007E-03
            1324            1734     56.5765E-03     58.8007E-03
            1307            1735     52.0241E-03     54.0701E-03
            1324            1735     52.0241E-03     54.0701E-03
            1325            1735     52.0241E-03     54.0701E-03
            1308            1735     52.0241E-03     54.0701E-03
            1309            1736     47.5525E-03     49.4727E-03
            1325            1736     47.5525E-03     49.4727E-03
            1308            1736     47.5525E-03     49.4727E-03
            1326            1736     47.5525E-03     49.4727E-03
            1309            1737     43.2003E-03     45.0557E-03
            1310            1737     43.2003E-03     45.0557E-03
            1326            1737     43.2003E-03     45.0557E-03
            1327            1737     43.2003E-03     45.0557E-03
            1327            1738     38.9123E-03     40.7197E-03
            1328            1738     38.9123E-03     40.7197E-03
            1311            1738     38.9123E-03     40.7197E-03
            1310            1738     38.9123E-03     40.7197E-03
            1329            1739     34.6850E-03     36.4656E-03
            1311            1739     34.6850E-03     36.4656E-03
            1312            1739     34.6850E-03     36.4656E-03
            1328            1739     34.6850E-03     36.4656E-03
            1330            1740     30.5208E-03     32.2739E-03
            1329            1740     30.5208E-03     32.2739E-03
            1312            1740     30.5208E-03     32.2739E-03
            1313            1740     30.5208E-03     32.2739E-03
            1331            1741     26.4328E-03     28.1559E-03
            1330            1741     26.4328E-03     28.1559E-03
            1313            1741     26.4328E-03     28.1559E-03
            1314            1741     26.4328E-03     28.1559E-03
            1314            1742     22.4408E-03     24.1297E-03
            1331            1742     22.4408E-03     24.1297E-03
            1332            1742     22.4408E-03     24.1297E-03
            1315            1742     22.4408E-03     24.1297E-03
            1315            1743     18.5998E-03     20.2574E-03
            1316            1743     18.5998E-03     20.2574E-03
            1332            1743     18.5998E-03     20.2574E-03
            1333            1743     18.5998E-03     20.2574E-03
            1333            1744     15.1061E-03     16.5560E-03
            1317            1744     15.1061E-03     16.5560E-03
            1316            1744     15.1061E-03     16.5560E-03
            1334            1744     15.1061E-03     16.5560E-03
            1317            1745     12.2286E-03     13.0091E-03
            1335            1745     12.2286E-03     13.0091E-03
            1318            1745     12.2286E-03     13.0091E-03
            1334            1745     12.2286E-03     13.0091E-03
            1336            1746     10.3683E-03     10.1725E-03
            1318            1746     10.3683E-03     10.1725E-03
            1319            1746     10.3683E-03     10.1725E-03
            1335            1746     10.3683E-03     10.1725E-03
            1320            1747     80.7206E-03     81.6933E-03
            1337            1747     80.7206E-03     81.6933E-03
            1321            1747     80.7206E-03     81.6933E-03
            1338            1747     80.7206E-03     81.6933E-03
            1321            1748     69.7504E-03     72.0842E-03
            1322            1748     69.7504E-03     72.0842E-03
            1338            1748     69.7504E-03     72.0842E-03
            1339            1748     69.7504E-03     72.0842E-03
            1340            1749     60.9800E-03     64.0833E-03
            1339            1749     60.9800E-03     64.0833E-03
            1323            1749     60.9800E-03     64.0833E-03
            1322            1749     60.9800E-03     64.0833E-03
            1324            1750     55.2709E-03     58.4354E-03
            1323            1750     55.2709E-03     58.4354E-03
            1340            1750     55.2709E-03     58.4354E-03
            1341            1750     55.2709E-03     58.4354E-03
            1324            1751     50.5219E-03     53.5986E-03
            1342            1751     50.5219E-03     53.5986E-03
            1341            1751     50.5219E-03     53.5986E-03
            1325            1751     50.5219E-03     53.5986E-03
            1342            1752     46.1007E-03     49.1376E-03
            1326            1752     46.1007E-03     49.1376E-03
            1343            1752     46.1007E-03     49.1376E-03
            1325            1752     46.1007E-03     49.1376E-03
            1327            1753     41.8316E-03     44.8231E-03
            1343            1753     41.8316E-03     44.8231E-03
            1326            1753     41.8316E-03     44.8231E-03
            1344            1753     41.8316E-03     44.8231E-03
            1344            1754     37.5923E-03     40.5730E-03
            1345            1754     37.5923E-03     40.5730E-03
            1328            1754     37.5923E-03     40.5730E-03
            1327            1754     37.5923E-03     40.5730E-03
            1328            1755     33.3876E-03     36.3507E-03
            1345            1755     33.3876E-03     36.3507E-03
            1346            1755     33.3876E-03     36.3507E-03
            1329            1755     33.3876E-03     36.3507E-03
            1330            1756     29.2016E-03     32.1490E-03
            1346            1756     29.2016E-03     32.1490E-03
            1329            1756     29.2016E-03     32.1490E-03
            1347            1756     29.2016E-03     32.1490E-03
            1347            1757     25.0556E-03     27.9733E-03
            1331            1757     25.0556E-03     27.9733E-03
            1330            1757     25.0556E-03     27.9733E-03
            1348            1757     25.0556E-03     27.9733E-03
            1331            1758     20.9708E-03     23.8366E-03
            1348            1758     20.9708E-03     23.8366E-03
            1349            1758     20.9708E-03     23.8366E-03
            1332            1758     20.9708E-03     23.8366E-03
            1332            1759     17.0072E-03     19.7584E-03
            1333            1759     17.0072E-03     19.7584E-03
            1350            1759     17.0072E-03     19.7584E-03
            1349            1759     17.0072E-03     19.7584E-03
            1333            1760     13.2877E-03     15.7125E-03
            1350            1760     13.2877E-03     15.7125E-03
            1334            1760     13.2877E-03     15.7125E-03
            1351            1760     13.2877E-03     15.7125E-03
            1334            1761     10.0857E-03     11.8266E-03
            1351            1761     10.0857E-03     11.8266E-03
            1352            1761     10.0857E-03     11.8266E-03
            1335            1761     10.0857E-03     11.8266E-03
            1336            1762     7.99054E-03     8.26568E-03
            1335            1762     7.99054E-03     8.26568E-03
            1352            1762     7.99054E-03     8.26568E-03
            1353            1762     7.99054E-03     8.26568E-03
            1337            1763     83.4521E-03     86.4656E-03
            1338            1763     83.4521E-03     86.4656E-03
            1354            1763     83.4521E-03     86.4656E-03
            1355            1763     83.4521E-03     86.4656E-03
            1356            1764     67.9469E-03     71.7380E-03
            1339            1764     67.9469E-03     71.7380E-03
            1338            1764     67.9469E-03     71.7380E-03
            1355            1764     67.9469E-03     71.7380E-03
            1339            1765     59.2974E-03     63.1244E-03
            1357            1765     59.2974E-03     63.1244E-03
            1356            1765     59.2974E-03     63.1244E-03
            1340            1765     59.2974E-03     63.1244E-03
            1358            1766     53.5644E-03     57.4861E-03
            1341            1766     53.5644E-03     57.4861E-03
            1340            1766     53.5644E-03     57.4861E-03
            1357            1766     53.5644E-03     57.4861E-03
            1342            1767     48.7347E-03     52.7737E-03
            1358            1767     48.7347E-03     52.7737E-03
            1359            1767     48.7347E-03     52.7737E-03
            1341            1767     48.7347E-03     52.7737E-03
            1359            1768     44.4438E-03     48.5435E-03
            1360            1768     44.4438E-03     48.5435E-03
            1343            1768     44.4438E-03     48.5435E-03
            1342            1768     44.4438E-03     48.5435E-03
            1360            1769     40.2573E-03     44.4036E-03
            1361            1769     40.2573E-03     44.4036E-03
            1344            1769     40.2573E-03     44.4036E-03
            1343            1769     40.2573E-03     44.4036E-03
            1344            1770     36.1330E-03     40.3016E-03
            1361            1770     36.1330E-03     40.3016E-03
            1345            1770     36.1330E-03     40.3016E-03
            1362            1770     36.1330E-03     40.3016E-03
            1362            1771     31.9917E-03     36.1737E-03
            1345            1771     31.9917E-03     36.1737E-03
            1346            1771     31.9917E-03     36.1737E-03
            1363            1771     31.9917E-03     36.1737E-03
            1347            1772     27.8479E-03     32.0334E-03
            1364            1772     27.8479E-03     32.0334E-03
            1363            1772     27.8479E-03     32.0334E-03
            1346            1772     27.8479E-03     32.0334E-03
            1347            1773     23.6983E-03     27.8725E-03
            1365            1773     23.6983E-03     27.8725E-03
            1364            1773     23.6983E-03     27.8725E-03
            1348            1773     23.6983E-03     27.8725E-03
            1366            1774     19.5734E-03     23.7076E-03
            1348            1774     19.5734E-03     23.7076E-03
            1365            1774     19.5734E-03     23.7076E-03
            1349            1774     19.5734E-03     23.7076E-03
            1367            1775     15.5165E-03     19.5116E-03
            1349            1775     15.5165E-03     19.5116E-03
            1350            1775     15.5165E-03     19.5116E-03
            1366            1775     15.5165E-03     19.5116E-03
            1368            1776     11.5741E-03     15.3269E-03
            1351            1776     11.5741E-03     15.3269E-03
            1350            1776     11.5741E-03     15.3269E-03
            1367            1776     11.5741E-03     15.3269E-03
            1369            1777     7.96697E-03     11.1294E-03
            1368            1777     7.96697E-03     11.1294E-03
            1352            1777     7.96697E-03     11.1294E-03
            1351            1777     7.96697E-03     11.1294E-03
            1352            1778     5.27569E-03     7.10194E-03
            1353            1778     5.27569E-03     7.10194E-03
            1370            1778     5.27569E-03     7.10194E-03
            1369            1778     5.27569E-03     7.10194E-03
            1371            1779     85.2662E-03     86.8043E-03
            1354            1779     85.2662E-03     86.8043E-03
            1372            1779     85.2662E-03     86.8043E-03
            1355            1779     85.2662E-03     86.8043E-03
            1355            1780     78.3805E-03     78.8125E-03
            1372            1780     78.3805E-03     78.8125E-03
            1356            1780     78.3805E-03     78.8125E-03
            1373            1780     78.3805E-03     78.8125E-03
            1373            1781     73.4033E-03     74.0017E-03
            1357            1781     73.4033E-03     74.0017E-03
            1356            1781     73.4033E-03     74.0017E-03
            1374            1781     73.4033E-03     74.0017E-03
            1358            1782     68.4172E-03     69.3984E-03
            1375            1782     68.4172E-03     69.3984E-03
            1357            1782     68.4172E-03     69.3984E-03
            1374            1782     68.4172E-03     69.3984E-03
            1359            1783     63.6161E-03     64.8118E-03
            1375            1783     63.6161E-03     64.8118E-03
            1376            1783     63.6161E-03     64.8118E-03
            1358            1783     63.6161E-03     64.8118E-03
            1376            1784     58.7186E-03     60.0851E-03
            1377            1784     58.7186E-03     60.0851E-03
            1360            1784     58.7186E-03     60.0851E-03
            1359            1784     58.7186E-03     60.0851E-03
            1378            1785     53.8169E-03     55.2498E-03
            1361            1785     53.8169E-03     55.2498E-03
            1377            1785     53.8169E-03     55.2498E-03
            1360            1785     53.8169E-03     55.2498E-03
            1379            1786     48.8591E-03     50.3567E-03
            1378            1786     48.8591E-03     50.3567E-03
            1362            1786     48.8591E-03     50.3567E-03
            1361            1786     48.8591E-03     50.3567E-03
            1380            1787     43.8790E-03     45.3898E-03
            1379            1787     43.8790E-03     45.3898E-03
            1362            1787     43.8790E-03     45.3898E-03
            1363            1787     43.8790E-03     45.3898E-03
            1363            1788     38.8760E-03     40.4358E-03
            1380            1788     38.8760E-03     40.4358E-03
            1381            1788     38.8760E-03     40.4358E-03
            1364            1788     38.8760E-03     40.4358E-03
            1364            1789     33.9040E-03     35.4858E-03
            1382            1789     33.9040E-03     35.4858E-03
            1365            1789     33.9040E-03     35.4858E-03
            1381            1789     33.9040E-03     35.4858E-03
            1383            1790     28.9914E-03     30.6128E-03
            1366            1790     28.9914E-03     30.6128E-03
            1382            1790     28.9914E-03     30.6128E-03
            1365            1790     28.9914E-03     30.6128E-03
            1366            1791     24.2317E-03     25.8632E-03
            1384            1791     24.2317E-03     25.8632E-03
            1367            1791     24.2317E-03     25.8632E-03
            1383            1791     24.2317E-03     25.8632E-03
            1385            1792     19.7205E-03     21.2979E-03
            1368            1792     19.7205E-03     21.2979E-03
            1384            1792     19.7205E-03     21.2979E-03
            1367            1792     19.7205E-03     21.2979E-03
            1386            1793     15.6168E-03     17.2603E-03
            1369            1793     15.6168E-03     17.2603E-03
            1368            1793     15.6168E-03     17.2603E-03
            1385            1793     15.6168E-03     17.2603E-03
            1369            1794     11.9574E-03     14.2771E-03
            1370            1794     11.9574E-03     14.2771E-03
            1387            1794     11.9574E-03     14.2771E-03
            1386            1794     11.9574E-03     14.2771E-03
            1371            1795     92.2782E-03     90.8313E-03
            1389            1795     92.2782E-03     90.8313E-03
            1372            1795     92.2782E-03     90.8313E-03
            1388            1795     92.2782E-03     90.8313E-03
            1389            1796     93.0740E-03     91.5163E-03
            1372            1796     93.0740E-03     91.5163E-03
            1390            1796     93.0740E-03     91.5163E-03
            1373            1796     93.0740E-03     91.5163E-03
            1390            1797     90.2585E-03     88.8134E-03
            1391            1797     90.2585E-03     88.8134E-03
            1373            1797     90.2585E-03     88.8134E-03
            1374            1797     90.2585E-03     88.8134E-03
            1391            1798     85.5845E-03     84.2253E-03
            1374            1798     85.5845E-03     84.2253E-03
            1375            1798     85.5845E-03     84.2253E-03
            1392            1798     85.5845E-03     84.2253E-03
            1393            1799     79.9947E-03     78.7504E-03
            1375            1799     79.9947E-03     78.7504E-03
            1376            1799     79.9947E-03     78.7504E-03
            1392            1799     79.9947E-03     78.7504E-03
            1393            1800     74.0437E-03     72.9179E-03
            1394            1800     74.0437E-03     72.9179E-03
            1376            1800     74.0437E-03     72.9179E-03
            1377            1800     74.0437E-03     72.9179E-03
            1377            1801     68.0149E-03     66.9111E-03
            1394            1801     68.0149E-03     66.9111E-03
            1395            1801     68.0149E-03     66.9111E-03
            1378            1801     68.0149E-03     66.9111E-03
            1395            1802     61.9125E-03     60.8539E-03
            1378            1802     61.9125E-03     60.8539E-03
            1396            1802     61.9125E-03     60.8539E-03
            1379            1802     61.9125E-03     60.8539E-03
            1396            1803     55.8321E-03     54.7845E-03
            1397            1803     55.8321E-03     54.7845E-03
            1380            1803     55.8321E-03     54.7845E-03
            1379            1803     55.8321E-03     54.7845E-03
            1397            1804     49.7676E-03     48.7493E-03
            1398            1804     49.7676E-03     48.7493E-03
            1381            1804     49.7676E-03     48.7493E-03
            1380            1804     49.7676E-03     48.7493E-03
            1381            1805     43.7885E-03     42.7989E-03
            1398            1805     43.7885E-03     42.7989E-03
            1399            1805     43.7885E-03     42.7989E-03
            1382            1805     43.7885E-03     42.7989E-03
            1399            1806     37.9315E-03     36.9918E-03
            1400            1806     37.9315E-03     36.9918E-03
            1382            1806     37.9315E-03     36.9918E-03
            1383            1806     37.9315E-03     36.9918E-03
            1400            1807     32.3181E-03     31.4605E-03
            1401            1807     32.3181E-03     31.4605E-03
            1383            1807     32.3181E-03     31.4605E-03
            1384            1807     32.3181E-03     31.4605E-03
            1384            1808     27.0423E-03     26.3994E-03
            1402            1808     27.0423E-03     26.3994E-03
            1401            1808     27.0423E-03     26.3994E-03
            1385            1808     27.0423E-03     26.3994E-03
            1402            1809     22.2980E-03     22.4125E-03
            1403            1809     22.2980E-03     22.4125E-03
            1385            1809     22.2980E-03     22.4125E-03
            1386            1809     22.2980E-03     22.4125E-03
            1403            1810     18.5808E-03     20.5823E-03
            1404            1810     18.5808E-03     20.5823E-03
            1387            1810     18.5808E-03     20.5823E-03
            1386            1810     18.5808E-03     20.5823E-03
            1406            1811     100.807E-03     102.220E-03
            1388            1811     100.807E-03     102.220E-03
            1405            1811     100.807E-03     102.220E-03
            1389            1811     100.807E-03     102.220E-03
            1407            1812     97.6787E-03     99.3971E-03
            1389            1812     97.6787E-03     99.3971E-03
            1390            1812     97.6787E-03     99.3971E-03
            1406            1812     97.6787E-03     99.3971E-03
            1391            1813     93.4971E-03     94.4145E-03
            1407            1813     93.4971E-03     94.4145E-03
            1390            1813     93.4971E-03     94.4145E-03
            1408            1813     93.4971E-03     94.4145E-03
            1392            1814     87.3402E-03     87.9328E-03
            1408            1814     87.3402E-03     87.9328E-03
            1409            1814     87.3402E-03     87.9328E-03
            1391            1814     87.3402E-03     87.9328E-03
            1393            1815     80.6934E-03     81.2047E-03
            1392            1815     80.6934E-03     81.2047E-03
            1409            1815     80.6934E-03     81.2047E-03
            1410            1815     80.6934E-03     81.2047E-03
            1411            1816     74.1011E-03     74.5384E-03
            1393            1816     74.1011E-03     74.5384E-03
            1394            1816     74.1011E-03     74.5384E-03
            1410            1816     74.1011E-03     74.5384E-03
            1411            1817     67.5092E-03     67.9415E-03
            1394            1817     67.5092E-03     67.9415E-03
            1412            1817     67.5092E-03     67.9415E-03
            1395            1817     67.5092E-03     67.9415E-03
            1413            1818     61.0110E-03     61.4292E-03
            1412            1818     61.0110E-03     61.4292E-03
            1396            1818     61.0110E-03     61.4292E-03
            1395            1818     61.0110E-03     61.4292E-03
            1396            1819     54.5674E-03     54.9856E-03
            1414            1819     54.5674E-03     54.9856E-03
            1413            1819     54.5674E-03     54.9856E-03
            1397            1819     54.5674E-03     54.9856E-03
            1414            1820     48.2002E-03     48.6055E-03
            1415            1820     48.2002E-03     48.6055E-03
            1397            1820     48.2002E-03     48.6055E-03
            1398            1820     48.2002E-03     48.6055E-03
            1399            1821     41.9190E-03     42.3033E-03
            1416            1821     41.9190E-03     42.3033E-03
            1415            1821     41.9190E-03     42.3033E-03
            1398            1821     41.9190E-03     42.3033E-03
            1416            1822     35.7495E-03     36.1231E-03
            1417            1822     35.7495E-03     36.1231E-03
            1399            1822     35.7495E-03     36.1231E-03
            1400            1822     35.7495E-03     36.1231E-03
            1401            1823     29.7572E-03     30.1566E-03
            1417            1823     29.7572E-03     30.1566E-03
            1418            1823     29.7572E-03     30.1566E-03
            1400            1823     29.7572E-03     30.1566E-03
            1402            1824     23.9971E-03     24.6427E-03
            1418            1824     23.9971E-03     24.6427E-03
            1401            1824     23.9971E-03     24.6427E-03
            1419            1824     23.9971E-03     24.6427E-03
            1419            1825     18.7792E-03     20.1746E-03
            1402            1825     18.7792E-03     20.1746E-03
            1420            1825     18.7792E-03     20.1746E-03
            1403            1825     18.7792E-03     20.1746E-03
            1403            1826     15.5379E-03     16.5994E-03
            1421            1826     15.5379E-03     16.5994E-03
            1404            1826     15.5379E-03     16.5994E-03
            1420            1826     15.5379E-03     16.5994E-03
            1422            1827     108.532E-03     111.380E-03
            1405            1827     108.532E-03     111.380E-03
            1423            1827     108.532E-03     111.380E-03
            1406            1827     108.532E-03     111.380E-03
            1424            1828     101.933E-03     104.702E-03
            1423            1828     101.933E-03     104.702E-03
            1407            1828     101.933E-03     104.702E-03
            1406            1828     101.933E-03     104.702E-03
            1425            1829     94.6236E-03     97.2558E-03
            1407            1829     94.6236E-03     97.2558E-03
            1424            1829     94.6236E-03     97.2558E-03
            1408            1829     94.6236E-03     97.2558E-03
            1425            1830     87.1977E-03     89.6149E-03
            1426            1830     87.1977E-03     89.6149E-03
            1409            1830     87.1977E-03     89.6149E-03
            1408            1830     87.1977E-03     89.6149E-03
            1410            1831     80.2477E-03     82.3993E-03
            1426            1831     80.2477E-03     82.3993E-03
            1409            1831     80.2477E-03     82.3993E-03
            1427            1831     80.2477E-03     82.3993E-03
            1428            1832     73.3611E-03     75.3836E-03
            1411            1832     73.3611E-03     75.3836E-03
            1427            1832     73.3611E-03     75.3836E-03
            1410            1832     73.3611E-03     75.3836E-03
            1411            1833     66.5924E-03     68.5623E-03
            1428            1833     66.5924E-03     68.5623E-03
            1412            1833     66.5924E-03     68.5623E-03
            1429            1833     66.5924E-03     68.5623E-03
            1412            1834     59.8968E-03     61.8449E-03
            1429            1834     59.8968E-03     61.8449E-03
            1413            1834     59.8968E-03     61.8449E-03
            1430            1834     59.8968E-03     61.8449E-03
            1431            1835     53.2693E-03     55.2016E-03
            1430            1835     53.2693E-03     55.2016E-03
            1413            1835     53.2693E-03     55.2016E-03
            1414            1835     53.2693E-03     55.2016E-03
            1414            1836     46.7091E-03     48.6211E-03
            1432            1836     46.7091E-03     48.6211E-03
            1415            1836     46.7091E-03     48.6211E-03
            1431            1836     46.7091E-03     48.6211E-03
            1415            1837     40.2125E-03     42.0926E-03
            1432            1837     40.2125E-03     42.0926E-03
            1433            1837     40.2125E-03     42.0926E-03
            1416            1837     40.2125E-03     42.0926E-03
            1434            1838     33.8075E-03     35.6535E-03
            1416            1838     33.8075E-03     35.6535E-03
            1417            1838     33.8075E-03     35.6535E-03
            1433            1838     33.8075E-03     35.6535E-03
            1434            1839     27.5035E-03     29.3410E-03
            1417            1839     27.5035E-03     29.3410E-03
            1418            1839     27.5035E-03     29.3410E-03
            1435            1839     27.5035E-03     29.3410E-03
            1435            1840     21.3816E-03     23.3754E-03
            1436            1840     21.3816E-03     23.3754E-03
            1418            1840     21.3816E-03     23.3754E-03
            1419            1840     21.3816E-03     23.3754E-03
            1419            1841     15.9382E-03     17.8427E-03
            1420            1841     15.9382E-03     17.8427E-03
            1437            1841     15.9382E-03     17.8427E-03
            1436            1841     15.9382E-03     17.8427E-03
            1420            1842     12.1012E-03     12.6402E-03
            1437            1842     12.1012E-03     12.6402E-03
            1438            1842     12.1012E-03     12.6402E-03
            1421            1842     12.1012E-03     12.6402E-03
            1439            1843     115.594E-03     117.214E-03
            1422            1843     115.594E-03     117.214E-03
            1423            1843     115.594E-03     117.214E-03
            1440            1843     115.594E-03     117.214E-03
            1441            1844     103.608E-03     106.966E-03
            1423            1844     103.608E-03     106.966E-03
            1424            1844     103.608E-03     106.966E-03
            1440            1844     103.608E-03     106.966E-03
            1441            1845     93.1626E-03     97.1417E-03
            1442            1845     93.1626E-03     97.1417E-03
            1424            1845     93.1626E-03     97.1417E-03
            1425            1845     93.1626E-03     97.1417E-03
            1443            1846     85.5974E-03     89.3965E-03
            1442            1846     85.5974E-03     89.3965E-03
            1426            1846     85.5974E-03     89.3965E-03
            1425            1846     85.5974E-03     89.3965E-03
            1427            1847     78.6283E-03     82.2370E-03
            1426            1847     78.6283E-03     82.2370E-03
            1443            1847     78.6283E-03     82.2370E-03
            1444            1847     78.6283E-03     82.2370E-03
            1444            1848     71.8476E-03     75.3917E-03
            1427            1848     71.8476E-03     75.3917E-03
            1428            1848     71.8476E-03     75.3917E-03
            1445            1848     71.8476E-03     75.3917E-03
            1446            1849     65.1627E-03     68.6668E-03
            1445            1849     65.1627E-03     68.6668E-03
            1429            1849     65.1627E-03     68.6668E-03
            1428            1849     65.1627E-03     68.6668E-03
            1446            1850     58.4907E-03     61.9891E-03
            1429            1850     58.4907E-03     61.9891E-03
            1447            1850     58.4907E-03     61.9891E-03
            1430            1850     58.4907E-03     61.9891E-03
            1430            1851     51.8505E-03     55.3452E-03
            1447            1851     51.8505E-03     55.3452E-03
            1448            1851     51.8505E-03     55.3452E-03
            1431            1851     51.8505E-03     55.3452E-03
            1432            1852     45.2307E-03     48.7107E-03
            1449            1852     45.2307E-03     48.7107E-03
            1448            1852     45.2307E-03     48.7107E-03
            1431            1852     45.2307E-03     48.7107E-03
            1450            1853     38.6445E-03     42.1081E-03
            1433            1853     38.6445E-03     42.1081E-03
            1449            1853     38.6445E-03     42.1081E-03
            1432            1853     38.6445E-03     42.1081E-03
            1451            1854     32.0955E-03     35.5230E-03
            1433            1854     32.0955E-03     35.5230E-03
            1434            1854     32.0955E-03     35.5230E-03
            1450            1854     32.0955E-03     35.5230E-03
            1452            1855     25.6076E-03     29.0116E-03
            1434            1855     25.6076E-03     29.0116E-03
            1451            1855     25.6076E-03     29.0116E-03
            1435            1855     25.6076E-03     29.0116E-03
            1436            1856     19.2773E-03     22.5826E-03
            1453            1856     19.2773E-03     22.5826E-03
            1452            1856     19.2773E-03     22.5826E-03
            1435            1856     19.2773E-03     22.5826E-03
            1436            1857     13.3746E-03     16.1193E-03
            1437            1857     13.3746E-03     16.1193E-03
            1453            1857     13.3746E-03     16.1193E-03
            1454            1857     13.3746E-03     16.1193E-03
            1454            1858     8.65037E-03     10.2969E-03
            1455            1858     8.65037E-03     10.2969E-03
            1438            1858     8.65037E-03     10.2969E-03
            1437            1858     8.65037E-03     10.2969E-03
            1439            1859     117.478E-03     120.936E-03
            1457            1859     117.478E-03     120.936E-03
            1440            1859     117.478E-03     120.936E-03
            1456            1859     117.478E-03     120.936E-03
            1457            1860     100.602E-03     105.147E-03
            1458            1860     100.602E-03     105.147E-03
            1441            1860     100.602E-03     105.147E-03
            1440            1860     100.602E-03     105.147E-03
            1441            1861     90.4680E-03     95.1776E-03
            1442            1861     90.4680E-03     95.1776E-03
            1459            1861     90.4680E-03     95.1776E-03
            1458            1861     90.4680E-03     95.1776E-03
            1460            1862     83.0489E-03     87.8844E-03
            1443            1862     83.0489E-03     87.8844E-03
            1459            1862     83.0489E-03     87.8844E-03
            1442            1862     83.0489E-03     87.8844E-03
            1443            1863     76.2595E-03     81.2242E-03
            1461            1863     76.2595E-03     81.2242E-03
            1444            1863     76.2595E-03     81.2242E-03
            1460            1863     76.2595E-03     81.2242E-03
            1462            1864     69.8045E-03     74.8238E-03
            1444            1864     69.8045E-03     74.8238E-03
            1445            1864     69.8045E-03     74.8238E-03
            1461            1864     69.8045E-03     74.8238E-03
            1463            1865     63.3392E-03     68.3927E-03
            1446            1865     63.3392E-03     68.3927E-03
            1462            1865     63.3392E-03     68.3927E-03
            1445            1865     63.3392E-03     68.3927E-03
            1464            1866     56.8703E-03     61.9409E-03
            1447            1866     56.8703E-03     61.9409E-03
            1463            1866     56.8703E-03     61.9409E-03
            1446            1866     56.8703E-03     61.9409E-03
            1465            1867     50.3545E-03     55.4278E-03
            1448            1867     50.3545E-03     55.4278E-03
            1447            1867     50.3545E-03     55.4278E-03
            1464            1867     50.3545E-03     55.4278E-03
            1466            1868     43.8077E-03     48.8967E-03
            1449            1868     43.8077E-03     48.8967E-03
            1465            1868     43.8077E-03     48.8967E-03
            1448            1868     43.8077E-03     48.8967E-03
            1467            1869     37.2459E-03     42.3339E-03
            1449            1869     37.2459E-03     42.3339E-03
            1450            1869     37.2459E-03     42.3339E-03
            1466            1869     37.2459E-03     42.3339E-03
            1467            1870     30.6737E-03     35.7621E-03
            1450            1870     30.6737E-03     35.7621E-03
            1451            1870     30.6737E-03     35.7621E-03
            1468            1870     30.6737E-03     35.7621E-03
            1468            1871     24.1330E-03     29.1745E-03
            1451            1871     24.1330E-03     29.1745E-03
            1469            1871     24.1330E-03     29.1745E-03
            1452            1871     24.1330E-03     29.1745E-03
            1452            1872     17.6988E-03     22.4873E-03
            1453            1872     17.6988E-03     22.4873E-03
            1470            1872     17.6988E-03     22.4873E-03
            1469            1872     17.6988E-03     22.4873E-03
            1453            1873     11.4360E-03     15.7336E-03
            1470            1873     11.4360E-03     15.7336E-03
            1471            1873     11.4360E-03     15.7336E-03
            1454            1873     11.4360E-03     15.7336E-03
            1472            1874     5.90915E-03     8.89928E-03
            1455            1874     5.90915E-03     8.89928E-03
            1454            1874     5.90915E-03     8.89928E-03
            1471            1874     5.90915E-03     8.89928E-03
            1473            1875     118.778E-03     120.720E-03
            1457            1875     118.778E-03     120.720E-03
            1456            1875     118.778E-03     120.720E-03
            1474            1875     118.778E-03     120.720E-03
            1474            1876     110.004E-03     110.647E-03
            1458            1876     110.004E-03     110.647E-03
            1475            1876     110.004E-03     110.647E-03
            1457            1876     110.004E-03     110.647E-03
            1458            1877     103.434E-03     104.553E-03
            1476            1877     103.434E-03     104.553E-03
            1459            1877     103.434E-03     104.553E-03
            1475            1877     103.434E-03     104.553E-03
            1476            1878     96.8429E-03     98.5703E-03
            1459            1878     96.8429E-03     98.5703E-03
            1477            1878     96.8429E-03     98.5703E-03
            1460            1878     96.8429E-03     98.5703E-03
            1461            1879     90.2818E-03     92.3548E-03
            1478            1879     90.2818E-03     92.3548E-03
            1460            1879     90.2818E-03     92.3548E-03
            1477            1879     90.2818E-03     92.3548E-03
            1479            1880     83.4830E-03     85.8430E-03
            1462            1880     83.4830E-03     85.8430E-03
            1478            1880     83.4830E-03     85.8430E-03
            1461            1880     83.4830E-03     85.8430E-03
            1463            1881     76.5734E-03     79.0187E-03
            1480            1881     76.5734E-03     79.0187E-03
            1462            1881     76.5734E-03     79.0187E-03
            1479            1881     76.5734E-03     79.0187E-03
            1480            1882     69.4951E-03     72.0307E-03
            1481            1882     69.4951E-03     72.0307E-03
            1463            1882     69.4951E-03     72.0307E-03
            1464            1882     69.4951E-03     72.0307E-03
            1464            1883     62.3657E-03     64.9240E-03
            1465            1883     62.3657E-03     64.9240E-03
            1481            1883     62.3657E-03     64.9240E-03
            1482            1883     62.3657E-03     64.9240E-03
            1465            1884     55.1727E-03     57.7746E-03
            1483            1884     55.1727E-03     57.7746E-03
            1466            1884     55.1727E-03     57.7746E-03
            1482            1884     55.1727E-03     57.7746E-03
            1466            1885     48.0035E-03     50.6385E-03
            1467            1885     48.0035E-03     50.6385E-03
            1483            1885     48.0035E-03     50.6385E-03
            1484            1885     48.0035E-03     50.6385E-03
            1484            1886     40.9108E-03     43.5684E-03
            1468            1886     40.9108E-03     43.5684E-03
            1485            1886     40.9108E-03     43.5684E-03
            1467            1886     40.9108E-03     43.5684E-03
            1485            1887     34.0042E-03     36.6336E-03
            1469            1887     34.0042E-03     36.6336E-03
            1468            1887     34.0042E-03     36.6336E-03
            1486            1887     34.0042E-03     36.6336E-03
            1469            1888     27.4203E-03     29.9238E-03
            1487            1888     27.4203E-03     29.9238E-03
            1470            1888     27.4203E-03     29.9238E-03
            1486            1888     27.4203E-03     29.9238E-03
            1470            1889     21.3757E-03     23.7771E-03
            1471            1889     21.3757E-03     23.7771E-03
            1487            1889     21.3757E-03     23.7771E-03
            1488            1889     21.3757E-03     23.7771E-03
            1472            1890     15.5540E-03     18.9035E-03
            1489            1890     15.5540E-03     18.9035E-03
            1488            1890     15.5540E-03     18.9035E-03
            1471            1890     15.5540E-03     18.9035E-03
            1473            1891     127.037E-03     125.568E-03
            1491            1891     127.037E-03     125.568E-03
            1490            1891     127.037E-03     125.568E-03
            1474            1891     127.037E-03     125.568E-03
            1492            1892     125.218E-03     124.156E-03
            1491            1892     125.218E-03     124.156E-03
            1474            1892     125.218E-03     124.156E-03
            1475            1892     125.218E-03     124.156E-03
            1492            1893     120.761E-03     119.621E-03
            1475            1893     120.761E-03     119.621E-03
            1493            1893     120.761E-03     119.621E-03
            1476            1893     120.761E-03     119.621E-03
            1476            1894     114.349E-03     113.521E-03
            1494            1894     114.349E-03     113.521E-03
            1493            1894     114.349E-03     113.521E-03
            1477            1894     114.349E-03     113.521E-03
            1478            1895     107.035E-03     106.441E-03
            1494            1895     107.035E-03     106.441E-03
            1477            1895     107.035E-03     106.441E-03
            1495            1895     107.035E-03     106.441E-03
            1496            1896     99.2052E-03     98.7633E-03
            1479            1896     99.2052E-03     98.7633E-03
            1478            1896     99.2052E-03     98.7633E-03
            1495            1896     99.2052E-03     98.7633E-03
            1480            1897     91.1169E-03     90.8171E-03
            1479            1897     91.1169E-03     90.8171E-03
            1496            1897     91.1169E-03     90.8171E-03
            1497            1897     91.1169E-03     90.8171E-03
            1481            1898     82.9557E-03     82.6988E-03
            1498            1898     82.9557E-03     82.6988E-03
            1480            1898     82.9557E-03     82.6988E-03
            1497            1898     82.9557E-03     82.6988E-03
            1481            1899     74.7386E-03     74.5360E-03
            1498            1899     74.7386E-03     74.5360E-03
            1499            1899     74.7386E-03     74.5360E-03
            1482            1899     74.7386E-03     74.5360E-03
            1499            1900     66.5639E-03     66.3773E-03
            1482            1900     66.5639E-03     66.3773E-03
            1500            1900     66.5639E-03     66.3773E-03
            1483            1900     66.5639E-03     66.3773E-03
            1501            1901     58.4679E-03     58.3024E-03
            1484            1901     58.4679E-03     58.3024E-03
            1500            1901     58.4679E-03     58.3024E-03
            1483            1901     58.4679E-03     58.3024E-03
            1485            1902     50.5447E-03     50.3988E-03
            1484            1902     50.5447E-03     50.3988E-03
            1502            1902     50.5447E-03     50.3988E-03
            1501            1902     50.5447E-03     50.3988E-03
            1485            1903     42.9397E-03     42.8149E-03
            1502            1903     42.9397E-03     42.8149E-03
            1503            1903     42.9397E-03     42.8149E-03
            1486            1903     42.9397E-03     42.8149E-03
            1487            1904     35.7931E-03     35.8334E-03
            1486            1904     35.7931E-03     35.8334E-03
            1503            1904     35.7931E-03     35.8334E-03
            1504            1904     35.7931E-03     35.8334E-03
            1504            1905     29.3625E-03     30.2785E-03
            1488            1905     29.3625E-03     30.2785E-03
            1505            1905     29.3625E-03     30.2785E-03
            1487            1905     29.3625E-03     30.2785E-03
            1488            1906     24.3505E-03     27.5728E-03
            1505            1906     24.3505E-03     27.5728E-03
            1506            1906     24.3505E-03     27.5728E-03
            1489            1906     24.3505E-03     27.5728E-03
            1491            1907     136.436E-03     138.469E-03
            1507            1907     136.436E-03     138.469E-03
            1490            1907     136.436E-03     138.469E-03
            1508            1907     136.436E-03     138.469E-03
            1491            1908     131.835E-03     133.929E-03
            1508            1908     131.835E-03     133.929E-03
            1492            1908     131.835E-03     133.929E-03
            1509            1908     131.835E-03     133.929E-03
            1492            1909     125.705E-03     127.395E-03
            1510            1909     125.705E-03     127.395E-03
            1493            1909     125.705E-03     127.395E-03
            1509            1909     125.705E-03     127.395E-03
            1493            1910     117.975E-03     119.190E-03
            1511            1910     117.975E-03     119.190E-03
            1510            1910     117.975E-03     119.190E-03
            1494            1910     117.975E-03     119.190E-03
            1495            1911     109.375E-03     110.375E-03
            1511            1911     109.375E-03     110.375E-03
            1494            1911     109.375E-03     110.375E-03
            1512            1911     109.375E-03     110.375E-03
            1513            1912     100.484E-03     101.449E-03
            1495            1912     100.484E-03     101.449E-03
            1496            1912     100.484E-03     101.449E-03
            1512            1912     100.484E-03     101.449E-03
            1514            1913     91.6224E-03     92.5274E-03
            1496            1913     91.6224E-03     92.5274E-03
            1513            1913     91.6224E-03     92.5274E-03
            1497            1913     91.6224E-03     92.5274E-03
            1498            1914     82.7621E-03     83.6740E-03
            1515            1914     82.7621E-03     83.6740E-03
            1497            1914     82.7621E-03     83.6740E-03
            1514            1914     82.7621E-03     83.6740E-03
            1499            1915     73.9989E-03     74.8854E-03
            1515            1915     73.9989E-03     74.8854E-03
            1516            1915     73.9989E-03     74.8854E-03
            1498            1915     73.9989E-03     74.8854E-03
            1516            1916     65.3019E-03     66.1831E-03
            1517            1916     65.3019E-03     66.1831E-03
            1499            1916     65.3019E-03     66.1831E-03
            1500            1916     65.3019E-03     66.1831E-03
            1518            1917     56.7264E-03     57.5792E-03
            1501            1917     56.7264E-03     57.5792E-03
            1500            1917     56.7264E-03     57.5792E-03
            1517            1917     56.7264E-03     57.5792E-03
            1501            1918     48.2776E-03     49.1422E-03
            1519            1918     48.2776E-03     49.1422E-03
            1502            1918     48.2776E-03     49.1422E-03
            1518            1918     48.2776E-03     49.1422E-03
            1502            1919     40.0396E-03     41.0103E-03
            1503            1919     40.0396E-03     41.0103E-03
            1520            1919     40.0396E-03     41.0103E-03
            1519            1919     40.0396E-03     41.0103E-03
            1520            1920     32.1005E-03     33.4600E-03
            1521            1920     32.1005E-03     33.4600E-03
            1503            1920     32.1005E-03     33.4600E-03
            1504            1920     32.1005E-03     33.4600E-03
            1521            1921     24.8134E-03     27.3427E-03
            1522            1921     24.8134E-03     27.3427E-03
            1505            1921     24.8134E-03     27.3427E-03
            1504            1921     24.8134E-03     27.3427E-03
            1522            1922     20.1845E-03     22.4950E-03
            1505            1922     20.1845E-03     22.4950E-03
            1523            1922     20.1845E-03     22.4950E-03
            1506            1922     20.1845E-03     22.4950E-03
            1508            1923     144.996E-03     147.734E-03
            1524            1923     144.996E-03     147.734E-03
            1525            1923     144.996E-03     147.734E-03
            1507            1923     144.996E-03     147.734E-03
            1525            1924     137.239E-03     141.032E-03
            1526            1924     137.239E-03     141.032E-03
            1509            1924     137.239E-03     141.032E-03
            1508            1924     137.239E-03     141.032E-03
            1509            1925     129.014E-03     132.364E-03
            1527            1925     129.014E-03     132.364E-03
            1526            1925     129.014E-03     132.364E-03
            1510            1925     129.014E-03     132.364E-03
            1527            1926     119.715E-03     122.580E-03
            1510            1926     119.715E-03     122.580E-03
            1528            1926     119.715E-03     122.580E-03
            1511            1926     119.715E-03     122.580E-03
            1512            1927     110.139E-03     112.690E-03
            1528            1927     110.139E-03     112.690E-03
            1511            1927     110.139E-03     112.690E-03
            1529            1927     110.139E-03     112.690E-03
            1529            1928     100.759E-03     103.052E-03
            1530            1928     100.759E-03     103.052E-03
            1512            1928     100.759E-03     103.052E-03
            1513            1928     100.759E-03     103.052E-03
            1531            1929     91.4262E-03     93.5961E-03
            1513            1929     91.4262E-03     93.5961E-03
            1530            1929     91.4262E-03     93.5961E-03
            1514            1929     91.4262E-03     93.5961E-03
            1531            1930     82.2296E-03     84.3202E-03
            1532            1930     82.2296E-03     84.3202E-03
            1514            1930     82.2296E-03     84.3202E-03
            1515            1930     82.2296E-03     84.3202E-03
            1516            1931     73.1160E-03     75.1669E-03
            1532            1931     73.1160E-03     75.1669E-03
            1533            1931     73.1160E-03     75.1669E-03
            1515            1931     73.1160E-03     75.1669E-03
            1517            1932     64.1057E-03     66.1156E-03
            1516            1932     64.1057E-03     66.1156E-03
            1533            1932     64.1057E-03     66.1156E-03
            1534            1932     64.1057E-03     66.1156E-03
            1534            1933     55.1750E-03     57.1657E-03
            1535            1933     55.1750E-03     57.1657E-03
            1517            1933     55.1750E-03     57.1657E-03
            1518            1933     55.1750E-03     57.1657E-03
            1536            1934     46.3496E-03     48.3516E-03
            1518            1934     46.3496E-03     48.3516E-03
            1519            1934     46.3496E-03     48.3516E-03
            1535            1934     46.3496E-03     48.3516E-03
            1520            1935     37.6271E-03     39.7503E-03
            1536            1935     37.6271E-03     39.7503E-03
            1537            1935     37.6271E-03     39.7503E-03
            1519            1935     37.6271E-03     39.7503E-03
            1520            1936     29.0613E-03     31.6943E-03
            1537            1936     29.0613E-03     31.6943E-03
            1521            1936     29.0613E-03     31.6943E-03
            1538            1936     29.0613E-03     31.6943E-03
            1522            1937     21.3721E-03     24.1788E-03
            1521            1937     21.3721E-03     24.1788E-03
            1538            1937     21.3721E-03     24.1788E-03
            1539            1937     21.3721E-03     24.1788E-03
            1523            1938     15.8033E-03     17.1640E-03
            1522            1938     15.8033E-03     17.1640E-03
            1539            1938     15.8033E-03     17.1640E-03
            1540            1938     15.8033E-03     17.1640E-03
            1541            1939     151.964E-03     155.502E-03
            1542            1939     151.964E-03     155.502E-03
            1524            1939     151.964E-03     155.502E-03
            1525            1939     151.964E-03     155.502E-03
            1525            1940     141.492E-03     145.411E-03
            1543            1940     141.492E-03     145.411E-03
            1542            1940     141.492E-03     145.411E-03
            1526            1940     141.492E-03     145.411E-03
            1526            1941     130.024E-03     134.199E-03
            1543            1941     130.024E-03     134.199E-03
            1527            1941     130.024E-03     134.199E-03
            1544            1941     130.024E-03     134.199E-03
            1527            1942     119.158E-03     123.257E-03
            1544            1942     119.158E-03     123.257E-03
            1545            1942     119.158E-03     123.257E-03
            1528            1942     119.158E-03     123.257E-03
            1529            1943     109.345E-03     113.097E-03
            1546            1943     109.345E-03     113.097E-03
            1545            1943     109.345E-03     113.097E-03
            1528            1943     109.345E-03     113.097E-03
            1529            1944     99.7800E-03     103.273E-03
            1530            1944     99.7800E-03     103.273E-03
            1546            1944     99.7800E-03     103.273E-03
            1547            1944     99.7800E-03     103.273E-03
            1531            1945     90.4082E-03     93.7734E-03
            1547            1945     90.4082E-03     93.7734E-03
            1548            1945     90.4082E-03     93.7734E-03
            1530            1945     90.4082E-03     93.7734E-03
            1548            1946     81.1426E-03     84.4208E-03
            1549            1946     81.1426E-03     84.4208E-03
            1532            1946     81.1426E-03     84.4208E-03
            1531            1946     81.1426E-03     84.4208E-03
            1532            1947     71.9455E-03     75.1855E-03
            1549            1947     71.9455E-03     75.1855E-03
            1533            1947     71.9455E-03     75.1855E-03
            1550            1947     71.9455E-03     75.1855E-03
            1533            1948     62.8127E-03     66.0182E-03
            1534            1948     62.8127E-03     66.0182E-03
            1551            1948     62.8127E-03     66.0182E-03
            1550            1948     62.8127E-03     66.0182E-03
            1552            1949     53.7315E-03     56.9165E-03
            1551            1949     53.7315E-03     56.9165E-03
            1535            1949     53.7315E-03     56.9165E-03
            1534            1949     53.7315E-03     56.9165E-03
            1536            1950     44.6983E-03     47.8879E-03
            1553            1950     44.6983E-03     47.8879E-03
            1535            1950     44.6983E-03     47.8879E-03
            1552            1950     44.6983E-03     47.8879E-03
            1536            1951     35.7094E-03     38.9883E-03
            1537            1951     35.7094E-03     38.9883E-03
            1554            1951     35.7094E-03     38.9883E-03
            1553            1951     35.7094E-03     38.9883E-03
            1537            1952     26.8537E-03     30.3096E-03
            1555            1952     26.8537E-03     30.3096E-03
            1538            1952     26.8537E-03     30.3096E-03
            1554            1952     26.8537E-03     30.3096E-03
            1539            1953     18.3771E-03     21.7809E-03
            1555            1953     18.3771E-03     21.7809E-03
            1538            1953     18.3771E-03     21.7809E-03
            1556            1953     18.3771E-03     21.7809E-03
            1557            1954     11.5335E-03     13.8758E-03
            1540            1954     11.5335E-03     13.8758E-03
            1539            1954     11.5335E-03     13.8758E-03
            1556            1954     11.5335E-03     13.8758E-03
            1541            1955     158.328E-03     160.503E-03
            1542            1955     158.328E-03     160.503E-03
            1558            1955     158.328E-03     160.503E-03
            1559            1955     158.328E-03     160.503E-03
            1559            1956     142.296E-03     146.254E-03
            1560            1956     142.296E-03     146.254E-03
            1542            1956     142.296E-03     146.254E-03
            1543            1956     142.296E-03     146.254E-03
            1561            1957     127.780E-03     132.649E-03
            1543            1957     127.780E-03     132.649E-03
            1560            1957     127.780E-03     132.649E-03
            1544            1957     127.780E-03     132.649E-03
            1561            1958     116.915E-03     121.705E-03
            1562            1958     116.915E-03     121.705E-03
            1544            1958     116.915E-03     121.705E-03
            1545            1958     116.915E-03     121.705E-03
            1562            1959     107.137E-03     111.749E-03
            1563            1959     107.137E-03     111.749E-03
            1546            1959     107.137E-03     111.749E-03
            1545            1959     107.137E-03     111.749E-03
            1547            1960     97.7874E-03     102.337E-03
            1563            1960     97.7874E-03     102.337E-03
            1564            1960     97.7874E-03     102.337E-03
            1546            1960     97.7874E-03     102.337E-03
            1564            1961     88.6547E-03     93.1259E-03
            1565            1961     88.6547E-03     93.1259E-03
            1547            1961     88.6547E-03     93.1259E-03
            1548            1961     88.6547E-03     93.1259E-03
            1566            1962     79.5496E-03     84.0180E-03
            1548            1962     79.5496E-03     84.0180E-03
            1549            1962     79.5496E-03     84.0180E-03
            1565            1962     79.5496E-03     84.0180E-03
            1567            1963     70.4897E-03     74.9365E-03
            1566            1963     70.4897E-03     74.9365E-03
            1550            1963     70.4897E-03     74.9365E-03
            1549            1963     70.4897E-03     74.9365E-03
            1551            1964     61.4238E-03     65.8681E-03
            1567            1964     61.4238E-03     65.8681E-03
            1568            1964     61.4238E-03     65.8681E-03
            1550            1964     61.4238E-03     65.8681E-03
            1552            1965     52.3784E-03     56.8023E-03
            1551            1965     52.3784E-03     56.8023E-03
            1568            1965     52.3784E-03     56.8023E-03
            1569            1965     52.3784E-03     56.8023E-03
            1570            1966     43.3352E-03     47.7419E-03
            1552            1966     43.3352E-03     47.7419E-03
            1553            1966     43.3352E-03     47.7419E-03
            1569            1966     43.3352E-03     47.7419E-03
            1554            1967     34.3172E-03     38.7167E-03
            1570            1967     34.3172E-03     38.7167E-03
            1553            1967     34.3172E-03     38.7167E-03
            1571            1967     34.3172E-03     38.7167E-03
            1571            1968     25.3960E-03     29.6033E-03
            1554            1968     25.3960E-03     29.6033E-03
            1572            1968     25.3960E-03     29.6033E-03
            1555            1968     25.3960E-03     29.6033E-03
            1572            1969     16.5032E-03     20.7011E-03
            1556            1969     16.5032E-03     20.7011E-03
            1573            1969     16.5032E-03     20.7011E-03
            1555            1969     16.5032E-03     20.7011E-03
            1574            1970     8.10976E-03     12.1841E-03
            1557            1970     8.10976E-03     12.1841E-03
            1573            1970     8.10976E-03     12.1841E-03
            1556            1970     8.10976E-03     12.1841E-03
            1559            1971     158.859E-03     162.404E-03
            1576            1971     158.859E-03     162.404E-03
            1575            1971     158.859E-03     162.404E-03
            1558            1971     158.859E-03     162.404E-03
            1559            1972     137.556E-03     142.336E-03
            1576            1972     137.556E-03     142.336E-03
            1577            1972     137.556E-03     142.336E-03
            1560            1972     137.556E-03     142.336E-03
            1577            1973     123.908E-03     128.753E-03
            1578            1973     123.908E-03     128.753E-03
            1561            1973     123.908E-03     128.753E-03
            1560            1973     123.908E-03     128.753E-03
            1578            1974     113.513E-03     118.608E-03
            1579            1974     113.513E-03     118.608E-03
            1562            1974     113.513E-03     118.608E-03
            1561            1974     113.513E-03     118.608E-03
            1563            1975     104.062E-03     109.404E-03
            1579            1975     104.062E-03     109.404E-03
            1562            1975     104.062E-03     109.404E-03
            1580            1975     104.062E-03     109.404E-03
            1564            1976     95.1945E-03     100.680E-03
            1581            1976     95.1945E-03     100.680E-03
            1563            1976     95.1945E-03     100.680E-03
            1580            1976     95.1945E-03     100.680E-03
            1581            1977     86.4068E-03     92.0075E-03
            1564            1977     86.4068E-03     92.0075E-03
            1582            1977     86.4068E-03     92.0075E-03
            1565            1977     86.4068E-03     92.0075E-03
            1583            1978     77.6770E-03     83.3239E-03
            1582            1978     77.6770E-03     83.3239E-03
            1565            1978     77.6770E-03     83.3239E-03
            1566            1978     77.6770E-03     83.3239E-03
            1584            1979     68.8865E-03     74.5732E-03
            1583            1979     68.8865E-03     74.5732E-03
            1566            1979     68.8865E-03     74.5732E-03
            1567            1979     68.8865E-03     74.5732E-03
            1584            1980     60.0706E-03     65.7701E-03
            1585            1980     60.0706E-03     65.7701E-03
            1567            1980     60.0706E-03     65.7701E-03
            1568            1980     60.0706E-03     65.7701E-03
            1586            1981     51.2076E-03     56.9095E-03
            1568            1981     51.2076E-03     56.9095E-03
            1585            1981     51.2076E-03     56.9095E-03
            1569            1981     51.2076E-03     56.9095E-03
            1587            1982     42.3432E-03     48.0126E-03
            1569            1982     42.3432E-03     48.0126E-03
            1586            1982     42.3432E-03     48.0126E-03
            1570            1982     42.3432E-03     48.0126E-03
            1587            1983     33.5205E-03     39.0305E-03
            1570            1983     33.5205E-03     39.0305E-03
            1588            1983     33.5205E-03     39.0305E-03
            1571            1983     33.5205E-03     39.0305E-03
            1572            1984     24.7633E-03     30.0037E-03
            1571            1984     24.7633E-03     30.0037E-03
            1588            1984     24.7633E-03     30.0037E-03
            1589            1984     24.7633E-03     30.0037E-03
            1590            1985     16.3039E-03     20.8582E-03
            1589            1985     16.3039E-03     20.8582E-03
            1572            1985     16.3039E-03     20.8582E-03
            1573            1985     16.3039E-03     20.8582E-03
            1591            1986     7.95485E-03     12.3667E-03
            1573            1986     7.95485E-03     12.3667E-03
            1590            1986     7.95485E-03     12.3667E-03
            1574            1986     7.95485E-03     12.3667E-03
            1593            1987     158.542E-03     161.175E-03
            1576            1987     158.542E-03     161.175E-03
            1592            1987     158.542E-03     161.175E-03
            1575            1987     158.542E-03     161.175E-03
            1577            1988     146.330E-03     147.144E-03
            1576            1988     146.330E-03     147.144E-03
            1594            1988     146.330E-03     147.144E-03
            1593            1988     146.330E-03     147.144E-03
            1594            1989     136.987E-03     138.241E-03
            1577            1989     136.987E-03     138.241E-03
            1595            1989     136.987E-03     138.241E-03
            1578            1989     136.987E-03     138.241E-03
            1595            1990     127.592E-03     129.578E-03
            1596            1990     127.592E-03     129.578E-03
            1578            1990     127.592E-03     129.578E-03
            1579            1990     127.592E-03     129.578E-03
            1596            1991     118.493E-03     120.887E-03
            1579            1991     118.493E-03     120.887E-03
            1580            1991     118.493E-03     120.887E-03
            1597            1991     118.493E-03     120.887E-03
            1598            1992     109.199E-03     111.921E-03
            1580            1992     109.199E-03     111.921E-03
            1597            1992     109.199E-03     111.921E-03
            1581            1992     109.199E-03     111.921E-03
            1581            1993     99.8998E-03     102.728E-03
            1598            1993     99.8998E-03     102.728E-03
            1582            1993     99.8998E-03     102.728E-03
            1599            1993     99.8998E-03     102.728E-03
            1599            1994     90.4649E-03     93.3989E-03
            1583            1994     90.4649E-03     93.3989E-03
            1582            1994     90.4649E-03     93.3989E-03
            1600            1994     90.4649E-03     93.3989E-03
            1583            1995     80.9809E-03     83.9189E-03
            1584            1995     80.9809E-03     83.9189E-03
            1601            1995     80.9809E-03     83.9189E-03
            1600            1995     80.9809E-03     83.9189E-03
            1584            1996     71.4193E-03     74.4148E-03
            1601            1996     71.4193E-03     74.4148E-03
            1602            1996     71.4193E-03     74.4148E-03
            1585            1996     71.4193E-03     74.4148E-03
            1585            1997     61.8768E-03     64.8765E-03
            1586            1997     61.8768E-03     64.8765E-03
            1602            1997     61.8768E-03     64.8765E-03
            1603            1997     61.8768E-03     64.8765E-03
            1586            1998     52.3924E-03     55.4107E-03
            1604            1998     52.3924E-03     55.4107E-03
            1587            1998     52.3924E-03     55.4107E-03
            1603            1998     52.3924E-03     55.4107E-03
            1605            1999     43.1224E-03     46.0538E-03
            1604            1999     43.1224E-03     46.0538E-03
            1587            1999     43.1224E-03     46.0538E-03
            1588            1999     43.1224E-03     46.0538E-03
            1605            2000     34.2441E-03     36.9222E-03
            1589            2000     34.2441E-03     36.9222E-03
            1606            2000     34.2441E-03     36.9222E-03
            1588            2000     34.2441E-03     36.9222E-03
            1589            2001     26.0998E-03     28.4642E-03
            1590            2001     26.0998E-03     28.4642E-03
            1606            2001     26.0998E-03     28.4642E-03
            1607            2001     26.0998E-03     28.4642E-03
            1607            2002     18.6668E-03     21.8852E-03
            1590            2002     18.6668E-03     21.8852E-03
            1591            2002     18.6668E-03     21.8852E-03
            1608            2002     18.6668E-03     21.8852E-03
            1610            2003     167.559E-03     166.805E-03
            1593            2003     167.559E-03     166.805E-03
            1592            2003     167.559E-03     166.805E-03
            1609            2003     167.559E-03     166.805E-03
            1610            2004     162.843E-03     162.380E-03
            1593            2004     162.843E-03     162.380E-03
            1594            2004     162.843E-03     162.380E-03
            1611            2004     162.843E-03     162.380E-03
            1612            2005     155.160E-03     154.911E-03
            1595            2005     155.160E-03     154.911E-03
            1594            2005     155.160E-03     154.911E-03
            1611            2005     155.160E-03     154.911E-03
            1596            2006     145.959E-03     145.855E-03
            1612            2006     145.959E-03     145.855E-03
            1595            2006     145.959E-03     145.855E-03
            1613            2006     145.959E-03     145.855E-03
            1613            2007     135.787E-03     135.880E-03
            1596            2007     135.787E-03     135.880E-03
            1597            2007     135.787E-03     135.880E-03
            1614            2007     135.787E-03     135.880E-03
            1597            2008     125.277E-03     125.534E-03
            1615            2008     125.277E-03     125.534E-03
            1614            2008     125.277E-03     125.534E-03
            1598            2008     125.277E-03     125.534E-03
            1598            2009     114.665E-03     114.950E-03
            1616            2009     114.665E-03     114.950E-03
            1615            2009     114.665E-03     114.950E-03
            1599            2009     114.665E-03     114.950E-03
            1600            2010     103.947E-03     104.282E-03
            1616            2010     103.947E-03     104.282E-03
            1599            2010     103.947E-03     104.282E-03
            1617            2010     103.947E-03     104.282E-03
            1600            2011     93.2327E-03     93.5618E-03
            1601            2011     93.2327E-03     93.5618E-03
            1617            2011     93.2327E-03     93.5618E-03
            1618            2011     93.2327E-03     93.5618E-03
            1619            2012     82.5101E-03     82.8552E-03
            1602            2012     82.5101E-03     82.8552E-03
            1618            2012     82.5101E-03     82.8552E-03
            1601            2012     82.5101E-03     82.8552E-03
            1602            2013     71.8742E-03     72.2198E-03
            1619            2013     71.8742E-03     72.2198E-03
            1603            2013     71.8742E-03     72.2198E-03
            1620            2013     71.8742E-03     72.2198E-03
            1620            2014     61.3715E-03     61.7249E-03
            1603            2014     61.3715E-03     61.7249E-03
            1621            2014     61.3715E-03     61.7249E-03
            1604            2014     61.3715E-03     61.7249E-03
            1605            2015     51.1740E-03     51.5426E-03
            1604            2015     51.1740E-03     51.5426E-03
            1621            2015     51.1740E-03     51.5426E-03
            1622            2015     51.1740E-03     51.5426E-03
            1623            2016     41.4539E-03     41.9027E-03
            1622            2016     41.4539E-03     41.9027E-03
            1606            2016     41.4539E-03     41.9027E-03
            1605            2016     41.4539E-03     41.9027E-03
            1623            2017     32.5830E-03     33.6754E-03
            1607            2017     32.5830E-03     33.6754E-03
            1624            2017     32.5830E-03     33.6754E-03
            1606            2017     32.5830E-03     33.6754E-03
            1607            2018     25.4527E-03     29.0188E-03
            1625            2018     25.4527E-03     29.0188E-03
            1608            2018     25.4527E-03     29.0188E-03
            1624            2018     25.4527E-03     29.0188E-03
            1626            2019     178.413E-03     180.997E-03
            1609            2019     178.413E-03     180.997E-03
            1610            2019     178.413E-03     180.997E-03
            1627            2019     178.413E-03     180.997E-03
            1627            2020     170.132E-03     173.680E-03
            1611            2020     170.132E-03     173.680E-03
            1610            2020     170.132E-03     173.680E-03
            1628            2020     170.132E-03     173.680E-03
            1612            2021     160.385E-03     163.075E-03
            1628            2021     160.385E-03     163.075E-03
            1611            2021     160.385E-03     163.075E-03
            1629            2021     160.385E-03     163.075E-03
            1629            2022     149.125E-03     151.315E-03
            1612            2022     149.125E-03     151.315E-03
            1613            2022     149.125E-03     151.315E-03
            1630            2022     149.125E-03     151.315E-03
            1631            2023     137.495E-03     139.506E-03
            1613            2023     137.495E-03     139.506E-03
            1614            2023     137.495E-03     139.506E-03
            1630            2023     137.495E-03     139.506E-03
            1615            2024     126.031E-03     127.911E-03
            1632            2024     126.031E-03     127.911E-03
            1614            2024     126.031E-03     127.911E-03
            1631            2024     126.031E-03     127.911E-03
            1632            2025     114.587E-03     116.444E-03
            1615            2025     114.587E-03     116.444E-03
            1633            2025     114.587E-03     116.444E-03
            1616            2025     114.587E-03     116.444E-03
            1633            2026     103.259E-03     105.091E-03
            1617            2026     103.259E-03     105.091E-03
            1616            2026     103.259E-03     105.091E-03
            1634            2026     103.259E-03     105.091E-03
            1617            2027     91.9914E-03     93.8195E-03
            1618            2027     91.9914E-03     93.8195E-03
            1634            2027     91.9914E-03     93.8195E-03
            1635            2027     91.9914E-03     93.8195E-03
            1636            2028     80.8070E-03     82.6074E-03
            1619            2028     80.8070E-03     82.6074E-03
            1618            2028     80.8070E-03     82.6074E-03
            1635            2028     80.8070E-03     82.6074E-03
            1619            2029     69.7084E-03     71.4704E-03
            1620            2029     69.7084E-03     71.4704E-03
            1637            2029     69.7084E-03     71.4704E-03
            1636            2029     69.7084E-03     71.4704E-03
            1637            2030     58.7199E-03     60.4419E-03
            1620            2030     58.7199E-03     60.4419E-03
            1638            2030     58.7199E-03     60.4419E-03
            1621            2030     58.7199E-03     60.4419E-03
            1639            2031     47.8960E-03     49.6393E-03
            1622            2031     47.8960E-03     49.6393E-03
            1621            2031     47.8960E-03     49.6393E-03
            1638            2031     47.8960E-03     49.6393E-03
            1622            2032     37.2778E-03     39.3541E-03
            1639            2032     37.2778E-03     39.3541E-03
            1623            2032     37.2778E-03     39.3541E-03
            1640            2032     37.2778E-03     39.3541E-03
            1641            2033     27.2175E-03     30.4284E-03
            1640            2033     27.2175E-03     30.4284E-03
            1623            2033     27.2175E-03     30.4284E-03
            1624            2033     27.2175E-03     30.4284E-03
            1625            2034     20.0809E-03     23.0388E-03
            1624            2034     20.0809E-03     23.0388E-03
            1642            2034     20.0809E-03     23.0388E-03
            1641            2034     20.0809E-03     23.0388E-03
            1626            2035     186.418E-03     191.378E-03
            1644            2035     186.418E-03     191.378E-03
            1643            2035     186.418E-03     191.378E-03
            1627            2035     186.418E-03     191.378E-03
            1645            2036     175.332E-03     180.063E-03
            1644            2036     175.332E-03     180.063E-03
            1628            2036     175.332E-03     180.063E-03
            1627            2036     175.332E-03     180.063E-03
            1629            2037     162.377E-03     166.911E-03
            1628            2037     162.377E-03     166.911E-03
            1646            2037     162.377E-03     166.911E-03
            1645            2037     162.377E-03     166.911E-03
            1646            2038     149.436E-03     153.630E-03
            1630            2038     149.436E-03     153.630E-03
            1629            2038     149.436E-03     153.630E-03
            1647            2038     149.436E-03     153.630E-03
            1630            2039     137.431E-03     141.153E-03
            1648            2039     137.431E-03     141.153E-03
            1647            2039     137.431E-03     141.153E-03
            1631            2039     137.431E-03     141.153E-03
            1631            2040     125.533E-03     129.041E-03
            1648            2040     125.533E-03     129.041E-03
            1649            2040     125.533E-03     129.041E-03
            1632            2040     125.533E-03     129.041E-03
            1632            2041     113.832E-03     117.246E-03
            1649            2041     113.832E-03     117.246E-03
            1633            2041     113.832E-03     117.246E-03
            1650            2041     113.832E-03     117.246E-03
            1650            2042     102.224E-03     105.607E-03
            1634            2042     102.224E-03     105.607E-03
            1651            2042     102.224E-03     105.607E-03
            1633            2042     102.224E-03     105.607E-03
            1651            2043     90.7077E-03     94.0676E-03
            1652            2043     90.7077E-03     94.0676E-03
            1635            2043     90.7077E-03     94.0676E-03
            1634            2043     90.7077E-03     94.0676E-03
            1636            2044     79.2669E-03     82.6019E-03
            1635            2044     79.2669E-03     82.6019E-03
            1653            2044     79.2669E-03     82.6019E-03
            1652            2044     79.2669E-03     82.6019E-03
            1654            2045     67.8889E-03     71.1783E-03
            1637            2045     67.8889E-03     71.1783E-03
            1636            2045     67.8889E-03     71.1783E-03
            1653            2045     67.8889E-03     71.1783E-03
            1638            2046     56.5858E-03     59.8420E-03
            1655            2046     56.5858E-03     59.8420E-03
            1637            2046     56.5858E-03     59.8420E-03
            1654            2046     56.5858E-03     59.8420E-03
            1639            2047     45.3367E-03     48.6030E-03
            1656            2047     45.3367E-03     48.6030E-03
            1655            2047     45.3367E-03     48.6030E-03
            1638            2047     45.3367E-03     48.6030E-03
            1657            2048     34.1073E-03     37.7803E-03
            1656            2048     34.1073E-03     37.7803E-03
            1640            2048     34.1073E-03     37.7803E-03
            1639            2048     34.1073E-03     37.7803E-03
            1658            2049     23.3057E-03     27.6379E-03
            1641            2049     23.3057E-03     27.6379E-03
            1640            2049     23.3057E-03     27.6379E-03
            1657            2049     23.3057E-03     27.6379E-03
            1641            2050     14.6061E-03     17.4760E-03
            1659            2050     14.6061E-03     17.4760E-03
            1658            2050     14.6061E-03     17.4760E-03
            1642            2050     14.6061E-03     17.4760E-03
            1644            2051     193.249E-03     196.032E-03
            1643            2051     193.249E-03     196.032E-03
            1660            2051     193.249E-03     196.032E-03
            1661            2051     193.249E-03     196.032E-03
            1645            2052     176.064E-03     181.255E-03
            1662            2052     176.064E-03     181.255E-03
            1644            2052     176.064E-03     181.255E-03
            1661            2052     176.064E-03     181.255E-03
            1663            2053     160.048E-03     165.809E-03
            1645            2053     160.048E-03     165.809E-03
            1646            2053     160.048E-03     165.809E-03
            1662            2053     160.048E-03     165.809E-03
            1664            2054     147.374E-03     152.784E-03
            1646            2054     147.374E-03     152.784E-03
            1663            2054     147.374E-03     152.784E-03
            1647            2054     147.374E-03     152.784E-03
            1647            2055     135.419E-03     140.544E-03
            1648            2055     135.419E-03     140.544E-03
            1664            2055     135.419E-03     140.544E-03
            1665            2055     135.419E-03     140.544E-03
            1648            2056     123.764E-03     128.769E-03
            1666            2056     123.764E-03     128.769E-03
            1649            2056     123.764E-03     128.769E-03
            1665            2056     123.764E-03     128.769E-03
            1666            2057     112.223E-03     117.174E-03
            1649            2057     112.223E-03     117.174E-03
            1667            2057     112.223E-03     117.174E-03
            1650            2057     112.223E-03     117.174E-03
            1667            2058     100.716E-03     105.656E-03
            1668            2058     100.716E-03     105.656E-03
            1650            2058     100.716E-03     105.656E-03
            1651            2058     100.716E-03     105.656E-03
            1668            2059     89.2438E-03     94.1828E-03
            1669            2059     89.2438E-03     94.1828E-03
            1651            2059     89.2438E-03     94.1828E-03
            1652            2059     89.2438E-03     94.1828E-03
            1652            2060     77.7940E-03     82.7137E-03
            1653            2060     77.7940E-03     82.7137E-03
            1670            2060     77.7940E-03     82.7137E-03
            1669            2060     77.7940E-03     82.7137E-03
            1653            2061     66.3691E-03     71.2710E-03
            1671            2061     66.3691E-03     71.2710E-03
            1670            2061     66.3691E-03     71.2710E-03
            1654            2061     66.3691E-03     71.2710E-03
            1672            2062     54.9636E-03     59.8248E-03
            1671            2062     54.9636E-03     59.8248E-03
            1655            2062     54.9636E-03     59.8248E-03
            1654            2062     54.9636E-03     59.8248E-03
            1655            2063     43.5669E-03     48.4465E-03
            1673            2063     43.5669E-03     48.4465E-03
            1672            2063     43.5669E-03     48.4465E-03
            1656            2063     43.5669E-03     48.4465E-03
            1656            2064     32.2116E-03     37.1519E-03
            1657            2064     32.2116E-03     37.1519E-03
            1673            2064     32.2116E-03     37.1519E-03
            1674            2064     32.2116E-03     37.1519E-03
            1657            2065     20.9965E-03     25.8560E-03
            1675            2065     20.9965E-03     25.8560E-03
            1674            2065     20.9965E-03     25.8560E-03
            1658            2065     20.9965E-03     25.8560E-03
            1658            2066     10.0880E-03     15.6696E-03
            1675            2066     10.0880E-03     15.6696E-03
            1676            2066     10.0880E-03     15.6696E-03
            1659            2066     10.0880E-03     15.6696E-03
            1661            2067     192.836E-03     197.005E-03
            1678            2067     192.836E-03     197.005E-03
            1677            2067     192.836E-03     197.005E-03
            1660            2067     192.836E-03     197.005E-03
            1661            2068     170.374E-03     176.019E-03
            1678            2068     170.374E-03     176.019E-03
            1679            2068     170.374E-03     176.019E-03
            1662            2068     170.374E-03     176.019E-03
            1662            2069     155.368E-03     161.286E-03
            1679            2069     155.368E-03     161.286E-03
            1663            2069     155.368E-03     161.286E-03
            1680            2069     155.368E-03     161.286E-03
            1680            2070     143.414E-03     149.526E-03
            1681            2070     143.414E-03     149.526E-03
            1663            2070     143.414E-03     149.526E-03
            1664            2070     143.414E-03     149.526E-03
            1681            2071     132.033E-03     138.364E-03
            1665            2071     132.033E-03     138.364E-03
            1664            2071     132.033E-03     138.364E-03
            1682            2071     132.033E-03     138.364E-03
            1683            2072     121.013E-03     127.451E-03
            1666            2072     121.013E-03     127.451E-03
            1665            2072     121.013E-03     127.451E-03
            1682            2072     121.013E-03     127.451E-03
            1667            2073     109.955E-03     116.442E-03
            1684            2073     109.955E-03     116.442E-03
            1666            2073     109.955E-03     116.442E-03
            1683            2073     109.955E-03     116.442E-03
            1684            2074     98.8613E-03     105.379E-03
            1668            2074     98.8613E-03     105.379E-03
            1667            2074     98.8613E-03     105.379E-03
            1685            2074     98.8613E-03     105.379E-03
            1685            2075     87.6959E-03     94.2119E-03
            1668            2075     87.6959E-03     94.2119E-03
            1669            2075     87.6959E-03     94.2119E-03
            1686            2075     87.6959E-03     94.2119E-03
            1687            2076     76.4682E-03     83.0042E-03
            1669            2076     76.4682E-03     83.0042E-03
            1670            2076     76.4682E-03     83.0042E-03
            1686            2076     76.4682E-03     83.0042E-03
            1670            2077     65.2132E-03     71.7452E-03
            1671            2077     65.2132E-03     71.7452E-03
            1687            2077     65.2132E-03     71.7452E-03
            1688            2077     65.2132E-03     71.7452E-03
            1672            2078     53.9333E-03     60.4616E-03
            1671            2078     53.9333E-03     60.4616E-03
            1689            2078     53.9333E-03     60.4616E-03
            1688            2078     53.9333E-03     60.4616E-03
            1673            2079     42.6949E-03     49.1667E-03
            1672            2079     42.6949E-03     49.1667E-03
            1690            2079     42.6949E-03     49.1667E-03
            1689            2079     42.6949E-03     49.1667E-03
            1690            2080     31.5955E-03     37.7489E-03
            1674            2080     31.5955E-03     37.7489E-03
            1673            2080     31.5955E-03     37.7489E-03
            1691            2080     31.5955E-03     37.7489E-03
            1675            2081     20.7457E-03     26.2960E-03
            1691            2081     20.7457E-03     26.2960E-03
            1674            2081     20.7457E-03     26.2960E-03
            1692            2081     20.7457E-03     26.2960E-03
            1675            2082     10.1290E-03     15.7446E-03
            1692            2082     10.1290E-03     15.7446E-03
            1693            2082     10.1290E-03     15.7446E-03
            1676            2082     10.1290E-03     15.7446E-03
            1695            2083     189.460E-03     195.549E-03
            1694            2083     189.460E-03     195.549E-03
            1678            2083     189.460E-03     195.549E-03
            1677            2083     189.460E-03     195.549E-03
            1678            2084     172.087E-03     176.556E-03
            1679            2084     172.087E-03     176.556E-03
            1696            2084     172.087E-03     176.556E-03
            1695            2084     172.087E-03     176.556E-03
            1697            2085     159.453E-03     164.058E-03
            1680            2085     159.453E-03     164.058E-03
            1679            2085     159.453E-03     164.058E-03
            1696            2085     159.453E-03     164.058E-03
            1697            2086     147.482E-03     152.513E-03
            1681            2086     147.482E-03     152.513E-03
            1680            2086     147.482E-03     152.513E-03
            1698            2086     147.482E-03     152.513E-03
            1681            2087     136.107E-03     141.325E-03
            1682            2087     136.107E-03     141.325E-03
            1698            2087     136.107E-03     141.325E-03
            1699            2087     136.107E-03     141.325E-03
            1699            2088     124.727E-03     130.119E-03
            1700            2088     124.727E-03     130.119E-03
            1683            2088     124.727E-03     130.119E-03
            1682            2088     124.727E-03     130.119E-03
            1700            2089     113.402E-03     118.810E-03
            1701            2089     113.402E-03     118.810E-03
            1683            2089     113.402E-03     118.810E-03
            1684            2089     113.402E-03     118.810E-03
            1702            2090     101.975E-03     107.428E-03
            1685            2090     101.975E-03     107.428E-03
            1684            2090     101.975E-03     107.428E-03
            1701            2090     101.975E-03     107.428E-03
            1702            2091     90.5197E-03     95.9569E-03
            1685            2091     90.5197E-03     95.9569E-03
            1703            2091     90.5197E-03     95.9569E-03
            1686            2091     90.5197E-03     95.9569E-03
            1704            2092     78.9889E-03     84.4529E-03
            1703            2092     78.9889E-03     84.4529E-03
            1687            2092     78.9889E-03     84.4529E-03
            1686            2092     78.9889E-03     84.4529E-03
            1704            2093     67.4379E-03     72.9027E-03
            1688            2093     67.4379E-03     72.9027E-03
            1687            2093     67.4379E-03     72.9027E-03
            1705            2093     67.4379E-03     72.9027E-03
            1706            2094     55.8658E-03     61.3457E-03
            1688            2094     55.8658E-03     61.3457E-03
            1705            2094     55.8658E-03     61.3457E-03
            1689            2094     55.8658E-03     61.3457E-03
            1689            2095     44.3356E-03     49.7422E-03
            1707            2095     44.3356E-03     49.7422E-03
            1706            2095     44.3356E-03     49.7422E-03
            1690            2095     44.3356E-03     49.7422E-03
            1708            2096     32.8853E-03     38.1074E-03
            1691            2096     32.8853E-03     38.1074E-03
            1707            2096     32.8853E-03     38.1074E-03
            1690            2096     32.8853E-03     38.1074E-03
            1691            2097     21.6993E-03     26.4462E-03
            1709            2097     21.6993E-03     26.4462E-03
            1692            2097     21.6993E-03     26.4462E-03
            1708            2097     21.6993E-03     26.4462E-03
            1692            2098     11.0785E-03     14.9829E-03
            1710            2098     11.0785E-03     14.9829E-03
            1709            2098     11.0785E-03     14.9829E-03
            1693            2098     11.0785E-03     14.9829E-03
            1712            2099     13.9284E-15     13.0221E-15
            1711            2099     13.9284E-15     13.0221E-15
            1717            2099     13.9284E-15     13.0221E-15
            1716            2099     13.9284E-15     13.0221E-15
            1718            2100     11.9949E-15     11.8304E-15
            1713            2100     11.9949E-15     11.8304E-15
            1712            2100     11.9949E-15     11.8304E-15
            1717            2100     11.9949E-15     11.8304E-15
            1718            2101     7.19113E-15     7.38922E-15
            1714            2101     7.19113E-15     7.38922E-15
            1719            2101     7.19113E-15     7.38922E-15
            1713            2101     7.19113E-15     7.38922E-15
            1714            2102     14.3399E-15     12.6506E-15
            1719            2102     14.3399E-15     12.6506E-15
            1720            2102     14.3399E-15     12.6506E-15
            1715            2102     14.3399E-15     12.6506E-15
            1716            2103     13.5923E-15     12.8361E-15
            1722            2103     13.5923E-15     12.8361E-15
            1717            2103     13.5923E-15     12.8361E-15
            1721            2103     13.5923E-15     12.8361E-15
            1722            2104     13.0958E-15     13.4403E-15
            1717            2104     13.0958E-15     13.4403E-15
            1718            2104     13.0958E-15     13.4403E-15
            1723            2104     13.0958E-15     13.4403E-15
            1723            2105     4.92248E-15     6.14079E-15
            1724            2105     4.92248E-15     6.14079E-15
            1719            2105     4.92248E-15     6.14079E-15
            1718            2105     4.92248E-15     6.14079E-15
            1724            2106     5.77983E-15     6.47212E-15
            1725            2106     5.77983E-15     6.47212E-15
            1720            2106     5.77983E-15     6.47212E-15
            1719            2106     5.77983E-15     6.47212E-15
            1721            2107     11.8049E-15     12.0066E-15
            1727            2107     11.8049E-15     12.0066E-15
            1726            2107     11.8049E-15     12.0066E-15
            1722            2107     11.8049E-15     12.0066E-15
            1722            2108     15.0983E-15     16.4352E-15
            1728            2108     15.0983E-15     16.4352E-15
            1723            2108     15.0983E-15     16.4352E-15
            1727            2108     15.0983E-15     16.4352E-15
            1723            2109     9.71879E-15     11.7285E-15
            1724            2109     9.71879E-15     11.7285E-15
            1729            2109     9.71879E-15     11.7285E-15
            1728            2109     9.71879E-15     11.7285E-15
            1730            2110     5.77186E-15     8.09585E-15
            1724            2110     5.77186E-15     8.09585E-15
            1725            2110     5.77186E-15     8.09585E-15
            1729            2110     5.77186E-15     8.09585E-15
            1732            2111     9.54578E-15     9.39491E-15
            1726            2111     9.54578E-15     9.39491E-15
            1731            2111     9.54578E-15     9.39491E-15
            1727            2111     9.54578E-15     9.39491E-15
            1727            2112     12.2925E-15     13.6677E-15
            1728            2112     12.2925E-15     13.6677E-15
            1733            2112     12.2925E-15     13.6677E-15
            1732            2112     12.2925E-15     13.6677E-15
            1729            2113     12.4276E-15     13.9722E-15
            1734            2113     12.4276E-15     13.9722E-15
            1733            2113     12.4276E-15     13.9722E-15
            1728            2113     12.4276E-15     13.9722E-15
            1735            2114     14.0757E-15     14.8374E-15
            1729            2114     14.0757E-15     14.8374E-15
            1730            2114     14.0757E-15     14.8374E-15
            1734            2114     14.0757E-15     14.8374E-15
            1741            2115     211.185E-03     201.597E-03
            1742            2115     211.185E-03     201.597E-03
            1736            2115     211.185E-03     201.597E-03
            1737            2115     211.185E-03     201.597E-03
            1737            2116     183.242E-03     175.517E-03
            1738            2116     183.242E-03     175.517E-03
            1743            2116     183.242E-03     175.517E-03
            1742            2116     183.242E-03     175.517E-03
            1738            2117     135.834E-03     129.073E-03
            1743            2117     135.834E-03     129.073E-03
            1739            2117     135.834E-03     129.073E-03
            1744            2117     135.834E-03     129.073E-03
            1745            2118     84.1015E-03     81.4007E-03
            1739            2118     84.1015E-03     81.4007E-03
            1740            2118     84.1015E-03     81.4007E-03
            1744            2118     84.1015E-03     81.4007E-03
            1746            2119     207.405E-03     214.923E-03
            1741            2119     207.405E-03     214.923E-03
            1742            2119     207.405E-03     214.923E-03
            1747            2119     207.405E-03     214.923E-03
            1743            2120     181.065E-03     187.849E-03
            1742            2120     181.065E-03     187.849E-03
            1747            2120     181.065E-03     187.849E-03
            1748            2120     181.065E-03     187.849E-03
            1743            2121     140.287E-03     142.017E-03
            1744            2121     140.287E-03     142.017E-03
            1749            2121     140.287E-03     142.017E-03
            1748            2121     140.287E-03     142.017E-03
            1744            2122     86.4634E-03     88.3545E-03
            1745            2122     86.4634E-03     88.3545E-03
            1750            2122     86.4634E-03     88.3545E-03
            1749            2122     86.4634E-03     88.3545E-03
            1751            2123     223.023E-03     224.557E-03
            1747            2123     223.023E-03     224.557E-03
            1752            2123     223.023E-03     224.557E-03
            1746            2123     223.023E-03     224.557E-03
            1752            2124     193.028E-03     192.927E-03
            1747            2124     193.028E-03     192.927E-03
            1748            2124     193.028E-03     192.927E-03
            1753            2124     193.028E-03     192.927E-03
            1748            2125     149.241E-03     145.969E-03
            1753            2125     149.241E-03     145.969E-03
            1749            2125     149.241E-03     145.969E-03
            1754            2125     149.241E-03     145.969E-03
            1755            2126     90.9232E-03     92.0476E-03
            1754            2126     90.9232E-03     92.0476E-03
            1749            2126     90.9232E-03     92.0476E-03
            1750            2126     90.9232E-03     92.0476E-03
            1752            2127     242.657E-03     235.522E-03
            1756            2127     242.657E-03     235.522E-03
            1751            2127     242.657E-03     235.522E-03
            1757            2127     242.657E-03     235.522E-03
            1752            2128     204.145E-03     195.681E-03
            1753            2128     204.145E-03     195.681E-03
            1758            2128     204.145E-03     195.681E-03
            1757            2128     204.145E-03     195.681E-03
            1759            2129     151.955E-03     142.816E-03
            1758            2129     151.955E-03     142.816E-03
            1753            2129     151.955E-03     142.816E-03
            1754            2129     151.955E-03     142.816E-03
            1754            2130     90.2269E-03     86.2054E-03
            1759            2130     90.2269E-03     86.2054E-03
            1760            2130     90.2269E-03     86.2054E-03
            1755            2130     90.2269E-03     86.2054E-03
            1779            2131     208.235E-03     207.969E-03
            1762            2131     208.235E-03     207.969E-03
            1778            2131     208.235E-03     207.969E-03
            1761            2131     208.235E-03     207.969E-03
            1779            2132     200.100E-03     200.980E-03
            1763            2132     200.100E-03     200.980E-03
            1780            2132     200.100E-03     200.980E-03
            1762            2132     200.100E-03     200.980E-03
            1781            2133     189.555E-03     189.974E-03
            1763            2133     189.555E-03     189.974E-03
            1780            2133     189.555E-03     189.974E-03
            1764            2133     189.555E-03     189.974E-03
            1764            2134     177.078E-03     177.670E-03
            1765            2134     177.078E-03     177.670E-03
            1781            2134     177.078E-03     177.670E-03
            1782            2134     177.078E-03     177.670E-03
            1783            2135     164.024E-03     164.832E-03
            1765            2135     164.024E-03     164.832E-03
            1766            2135     164.024E-03     164.832E-03
            1782            2135     164.024E-03     164.832E-03
            1784            2136     150.991E-03     151.767E-03
            1766            2136     150.991E-03     151.767E-03
            1783            2136     150.991E-03     151.767E-03
            1767            2136     150.991E-03     151.767E-03
            1785            2137     137.768E-03     138.599E-03
            1784            2137     137.768E-03     138.599E-03
            1767            2137     137.768E-03     138.599E-03
            1768            2137     137.768E-03     138.599E-03
            1768            2138     124.554E-03     125.362E-03
            1786            2138     124.554E-03     125.362E-03
            1769            2138     124.554E-03     125.362E-03
            1785            2138     124.554E-03     125.362E-03
            1769            2139     111.269E-03     112.086E-03
            1787            2139     111.269E-03     112.086E-03
            1770            2139     111.269E-03     112.086E-03
            1786            2139     111.269E-03     112.086E-03
            1771            2140     98.0161E-03     98.8207E-03
            1787            2140     98.0161E-03     98.8207E-03
            1770            2140     98.0161E-03     98.8207E-03
            1788            2140     98.0161E-03     98.8207E-03
            1771            2141     84.7963E-03     85.6117E-03
            1789            2141     84.7963E-03     85.6117E-03
            1772            2141     84.7963E-03     85.6117E-03
            1788            2141     84.7963E-03     85.6117E-03
            1789            2142     71.7155E-03     72.5177E-03
            1790            2142     71.7155E-03     72.5177E-03
            1773            2142     71.7155E-03     72.5177E-03
            1772            2142     71.7155E-03     72.5177E-03
            1774            2143     58.8673E-03     59.6633E-03
            1773            2143     58.8673E-03     59.6633E-03
            1790            2143     58.8673E-03     59.6633E-03
            1791            2143     58.8673E-03     59.6633E-03
            1791            2144     46.4154E-03     47.3059E-03
            1774            2144     46.4154E-03     47.3059E-03
            1792            2144     46.4154E-03     47.3059E-03
            1775            2144     46.4154E-03     47.3059E-03
            1776            2145     34.8745E-03     36.1354E-03
            1775            2145     34.8745E-03     36.1354E-03
            1792            2145     34.8745E-03     36.1354E-03
            1793            2145     34.8745E-03     36.1354E-03
            1776            2146     25.3133E-03     28.7451E-03
            1794            2146     25.3133E-03     28.7451E-03
            1793            2146     25.3133E-03     28.7451E-03
            1777            2146     25.3133E-03     28.7451E-03
            1796            2147     219.225E-03     223.823E-03
            1779            2147     219.225E-03     223.823E-03
            1795            2147     219.225E-03     223.823E-03
            1778            2147     219.225E-03     223.823E-03
            1796            2148     207.765E-03     211.970E-03
            1779            2148     207.765E-03     211.970E-03
            1780            2148     207.765E-03     211.970E-03
            1797            2148     207.765E-03     211.970E-03
            1798            2149     193.241E-03     196.963E-03
            1781            2149     193.241E-03     196.963E-03
            1780            2149     193.241E-03     196.963E-03
            1797            2149     193.241E-03     196.963E-03
            1799            2150     178.609E-03     181.941E-03
            1781            2150     178.609E-03     181.941E-03
            1782            2150     178.609E-03     181.941E-03
            1798            2150     178.609E-03     181.941E-03
            1782            2151     164.606E-03     167.645E-03
            1799            2151     164.606E-03     167.645E-03
            1783            2151     164.606E-03     167.645E-03
            1800            2151     164.606E-03     167.645E-03
            1784            2152     150.624E-03     153.625E-03
            1801            2152     150.624E-03     153.625E-03
            1783            2152     150.624E-03     153.625E-03
            1800            2152     150.624E-03     153.625E-03
            1784            2153     136.819E-03     139.794E-03
            1802            2153     136.819E-03     139.794E-03
            1785            2153     136.819E-03     139.794E-03
            1801            2153     136.819E-03     139.794E-03
            1803            2154     123.071E-03     126.063E-03
            1785            2154     123.071E-03     126.063E-03
            1802            2154     123.071E-03     126.063E-03
            1786            2154     123.071E-03     126.063E-03
            1786            2155     109.397E-03     112.383E-03
            1803            2155     109.397E-03     112.383E-03
            1804            2155     109.397E-03     112.383E-03
            1787            2155     109.397E-03     112.383E-03
            1788            2156     95.7660E-03     98.7463E-03
            1804            2156     95.7660E-03     98.7463E-03
            1805            2156     95.7660E-03     98.7463E-03
            1787            2156     95.7660E-03     98.7463E-03
            1788            2157     82.2134E-03     85.1428E-03
            1805            2157     82.2134E-03     85.1428E-03
            1789            2157     82.2134E-03     85.1428E-03
            1806            2157     82.2134E-03     85.1428E-03
            1789            2158     68.7269E-03     71.6014E-03
            1790            2158     68.7269E-03     71.6014E-03
            1806            2158     68.7269E-03     71.6014E-03
            1807            2158     68.7269E-03     71.6014E-03
            1791            2159     55.3964E-03     58.1597E-03
            1807            2159     55.3964E-03     58.1597E-03
            1808            2159     55.3964E-03     58.1597E-03
            1790            2159     55.3964E-03     58.1597E-03
            1792            2160     42.1953E-03     45.0107E-03
            1808            2160     42.1953E-03     45.0107E-03
            1809            2160     42.1953E-03     45.0107E-03
            1791            2160     42.1953E-03     45.0107E-03
            1793            2161     29.1169E-03     33.1959E-03
            1792            2161     29.1169E-03     33.1959E-03
            1810            2161     29.1169E-03     33.1959E-03
            1809            2161     29.1169E-03     33.1959E-03
            1794            2162     18.8996E-03     22.9092E-03
            1793            2162     18.8996E-03     22.9092E-03
            1811            2162     18.8996E-03     22.9092E-03
            1810            2162     18.8996E-03     22.9092E-03
            1813            2163     226.898E-03     231.072E-03
            1812            2163     226.898E-03     231.072E-03
            1795            2163     226.898E-03     231.072E-03
            1796            2163     226.898E-03     231.072E-03
            1813            2164     209.260E-03     215.208E-03
            1797            2164     209.260E-03     215.208E-03
            1814            2164     209.260E-03     215.208E-03
            1796            2164     209.260E-03     215.208E-03
            1815            2165     191.872E-03     197.977E-03
            1798            2165     191.872E-03     197.977E-03
            1814            2165     191.872E-03     197.977E-03
            1797            2165     191.872E-03     197.977E-03
            1816            2166     177.301E-03     182.865E-03
            1798            2166     177.301E-03     182.865E-03
            1799            2166     177.301E-03     182.865E-03
            1815            2166     177.301E-03     182.865E-03
            1800            2167     163.193E-03     168.419E-03
            1817            2167     163.193E-03     168.419E-03
            1816            2167     163.193E-03     168.419E-03
            1799            2167     163.193E-03     168.419E-03
            1800            2168     149.181E-03     154.379E-03
            1818            2168     149.181E-03     154.379E-03
            1817            2168     149.181E-03     154.379E-03
            1801            2168     149.181E-03     154.379E-03
            1818            2169     135.303E-03     140.478E-03
            1802            2169     135.303E-03     140.478E-03
            1819            2169     135.303E-03     140.478E-03
            1801            2169     135.303E-03     140.478E-03
            1819            2170     121.458E-03     126.646E-03
            1803            2170     121.458E-03     126.646E-03
            1820            2170     121.458E-03     126.646E-03
            1802            2170     121.458E-03     126.646E-03
            1803            2171     107.673E-03     112.866E-03
            1821            2171     107.673E-03     112.866E-03
            1804            2171     107.673E-03     112.866E-03
            1820            2171     107.673E-03     112.866E-03
            1821            2172     93.9164E-03     99.1027E-03
            1804            2172     93.9164E-03     99.1027E-03
            1805            2172     93.9164E-03     99.1027E-03
            1822            2172     93.9164E-03     99.1027E-03
            1806            2173     80.2004E-03     85.3543E-03
            1805            2173     80.2004E-03     85.3543E-03
            1822            2173     80.2004E-03     85.3543E-03
            1823            2173     80.2004E-03     85.3543E-03
            1824            2174     66.5268E-03     71.6191E-03
            1806            2174     66.5268E-03     71.6191E-03
            1823            2174     66.5268E-03     71.6191E-03
            1807            2174     66.5268E-03     71.6191E-03
            1808            2175     52.8870E-03     57.9027E-03
            1807            2175     52.8870E-03     57.9027E-03
            1825            2175     52.8870E-03     57.9027E-03
            1824            2175     52.8870E-03     57.9027E-03
            1808            2176     39.2662E-03     44.3433E-03
            1825            2176     39.2662E-03     44.3433E-03
            1809            2176     39.2662E-03     44.3433E-03
            1826            2176     39.2662E-03     44.3433E-03
            1810            2177     25.7192E-03     31.3268E-03
            1809            2177     25.7192E-03     31.3268E-03
            1827            2177     25.7192E-03     31.3268E-03
            1826            2177     25.7192E-03     31.3268E-03
            1827            2178     13.2103E-03     18.4962E-03
            1811            2178     13.2103E-03     18.4962E-03
            1828            2178     13.2103E-03     18.4962E-03
            1810            2178     13.2103E-03     18.4962E-03
            1812            2179     226.203E-03     231.173E-03
            1830            2179     226.203E-03     231.173E-03
            1829            2179     226.203E-03     231.173E-03
            1813            2179     226.203E-03     231.173E-03
            1813            2180     202.866E-03     210.029E-03
            1830            2180     202.866E-03     210.029E-03
            1831            2180     202.866E-03     210.029E-03
            1814            2180     202.866E-03     210.029E-03
            1815            2181     187.023E-03     194.128E-03
            1831            2181     187.023E-03     194.128E-03
            1832            2181     187.023E-03     194.128E-03
            1814            2181     187.023E-03     194.128E-03
            1815            2182     173.434E-03     180.647E-03
            1816            2182     173.434E-03     180.647E-03
            1832            2182     173.434E-03     180.647E-03
            1833            2182     173.434E-03     180.647E-03
            1834            2183     159.950E-03     167.335E-03
            1833            2183     159.950E-03     167.335E-03
            1816            2183     159.950E-03     167.335E-03
            1817            2183     159.950E-03     167.335E-03
            1834            2184     146.666E-03     154.035E-03
            1818            2184     146.666E-03     154.035E-03
            1817            2184     146.666E-03     154.035E-03
            1835            2184     146.666E-03     154.035E-03
            1819            2185     133.189E-03     140.593E-03
            1818            2185     133.189E-03     140.593E-03
            1835            2185     133.189E-03     140.593E-03
            1836            2185     133.189E-03     140.593E-03
            1836            2186     119.686E-03     127.079E-03
            1820            2186     119.686E-03     127.079E-03
            1837            2186     119.686E-03     127.079E-03
            1819            2186     119.686E-03     127.079E-03
            1838            2187     106.090E-03     113.482E-03
            1821            2187     106.090E-03     113.482E-03
            1820            2187     106.090E-03     113.482E-03
            1837            2187     106.090E-03     113.482E-03
            1838            2188     92.4718E-03     99.8605E-03
            1822            2188     92.4718E-03     99.8605E-03
            1839            2188     92.4718E-03     99.8605E-03
            1821            2188     92.4718E-03     99.8605E-03
            1839            2189     78.8096E-03     86.2120E-03
            1822            2189     78.8096E-03     86.2120E-03
            1840            2189     78.8096E-03     86.2120E-03
            1823            2189     78.8096E-03     86.2120E-03
            1824            2190     65.1628E-03     72.5565E-03
            1841            2190     65.1628E-03     72.5565E-03
            1840            2190     65.1628E-03     72.5565E-03
            1823            2190     65.1628E-03     72.5565E-03
            1824            2191     51.5159E-03     58.8962E-03
            1825            2191     51.5159E-03     58.8962E-03
            1841            2191     51.5159E-03     58.8962E-03
            1842            2191     51.5159E-03     58.8962E-03
            1825            2192     37.9353E-03     45.2975E-03
            1843            2192     37.9353E-03     45.2975E-03
            1826            2192     37.9353E-03     45.2975E-03
            1842            2192     37.9353E-03     45.2975E-03
            1844            2193     24.8311E-03     31.3788E-03
            1826            2193     24.8311E-03     31.3788E-03
            1827            2193     24.8311E-03     31.3788E-03
            1843            2193     24.8311E-03     31.3788E-03
            1844            2194     11.9693E-03     18.3350E-03
            1827            2194     11.9693E-03     18.3350E-03
            1845            2194     11.9693E-03     18.3350E-03
            1828            2194     11.9693E-03     18.3350E-03
            1864            2195     13.2890E-03     19.7714E-03
            1863            2195     13.2890E-03     19.7714E-03
            1846            2195     13.2890E-03     19.7714E-03
            1847            2195     13.2890E-03     19.7714E-03
            1848            2196     22.8842E-03     31.5454E-03
            1865            2196     22.8842E-03     31.5454E-03
            1847            2196     22.8842E-03     31.5454E-03
            1864            2196     22.8842E-03     31.5454E-03
            1866            2197     34.1021E-03     44.0096E-03
            1849            2197     34.1021E-03     44.0096E-03
            1848            2197     34.1021E-03     44.0096E-03
            1865            2197     34.1021E-03     44.0096E-03
            1867            2198     46.0188E-03     56.2966E-03
            1850            2198     46.0188E-03     56.2966E-03
            1849            2198     46.0188E-03     56.2966E-03
            1866            2198     46.0188E-03     56.2966E-03
            1868            2199     58.3406E-03     68.6420E-03
            1850            2199     58.3406E-03     68.6420E-03
            1851            2199     58.3406E-03     68.6420E-03
            1867            2199     58.3406E-03     68.6420E-03
            1868            2200     70.7150E-03     81.0658E-03
            1852            2200     70.7150E-03     81.0658E-03
            1851            2200     70.7150E-03     81.0658E-03
            1869            2200     70.7150E-03     81.0658E-03
            1852            2201     83.1228E-03     93.5334E-03
            1853            2201     83.1228E-03     93.5334E-03
            1870            2201     83.1228E-03     93.5334E-03
            1869            2201     83.1228E-03     93.5334E-03
            1870            2202     95.5885E-03     105.997E-03
            1854            2202     95.5885E-03     105.997E-03
            1853            2202     95.5885E-03     105.997E-03
            1871            2202     95.5885E-03     105.997E-03
            1871            2203     108.022E-03     118.482E-03
            1872            2203     108.022E-03     118.482E-03
            1855            2203     108.022E-03     118.482E-03
            1854            2203     108.022E-03     118.482E-03
            1855            2204     120.512E-03     130.942E-03
            1872            2204     120.512E-03     130.942E-03
            1873            2204     120.512E-03     130.942E-03
            1856            2204     120.512E-03     130.942E-03
            1857            2205     132.898E-03     143.385E-03
            1856            2205     132.898E-03     143.385E-03
            1873            2205     132.898E-03     143.385E-03
            1874            2205     132.898E-03     143.385E-03
            1857            2206     145.331E-03     155.744E-03
            1875            2206     145.331E-03     155.744E-03
            1858            2206     145.331E-03     155.744E-03
            1874            2206     145.331E-03     155.744E-03
            1876            2207     157.465E-03     167.944E-03
            1875            2207     157.465E-03     167.944E-03
            1859            2207     157.465E-03     167.944E-03
            1858            2207     157.465E-03     167.944E-03
            1859            2208     169.968E-03     180.133E-03
            1877            2208     169.968E-03     180.133E-03
            1876            2208     169.968E-03     180.133E-03
            1860            2208     169.968E-03     180.133E-03
            1861            2209     183.280E-03     193.323E-03
            1878            2209     183.280E-03     193.323E-03
            1877            2209     183.280E-03     193.323E-03
            1860            2209     183.280E-03     193.323E-03
            1879            2210     206.002E-03     218.001E-03
            1861            2210     206.002E-03     218.001E-03
            1862            2210     206.002E-03     218.001E-03
            1878            2210     206.002E-03     218.001E-03
            1864            2211     19.6747E-03     23.8802E-03
            1881            2211     19.6747E-03     23.8802E-03
            1863            2211     19.6747E-03     23.8802E-03
            1880            2211     19.6747E-03     23.8802E-03
            1864            2212     24.7334E-03     34.4942E-03
            1882            2212     24.7334E-03     34.4942E-03
            1865            2212     24.7334E-03     34.4942E-03
            1881            2212     24.7334E-03     34.4942E-03
            1865            2213     33.5870E-03     44.8610E-03
            1882            2213     33.5870E-03     44.8610E-03
            1866            2213     33.5870E-03     44.8610E-03
            1883            2213     33.5870E-03     44.8610E-03
            1883            2214     43.8944E-03     55.7054E-03
            1866            2214     43.8944E-03     55.7054E-03
            1867            2214     43.8944E-03     55.7054E-03
            1884            2214     43.8944E-03     55.7054E-03
            1885            2215     54.8114E-03     66.9029E-03
            1867            2215     54.8114E-03     66.9029E-03
            1868            2215     54.8114E-03     66.9029E-03
            1884            2215     54.8114E-03     66.9029E-03
            1885            2216     66.0261E-03     78.2037E-03
            1868            2216     66.0261E-03     78.2037E-03
            1869            2216     66.0261E-03     78.2037E-03
            1886            2216     66.0261E-03     78.2037E-03
            1869            2217     77.3623E-03     89.6419E-03
            1870            2217     77.3623E-03     89.6419E-03
            1886            2217     77.3623E-03     89.6419E-03
            1887            2217     77.3623E-03     89.6419E-03
            1870            2218     88.7930E-03     101.104E-03
            1871            2218     88.7930E-03     101.104E-03
            1887            2218     88.7930E-03     101.104E-03
            1888            2218     88.7930E-03     101.104E-03
            1888            2219     100.283E-03     112.656E-03
            1872            2219     100.283E-03     112.656E-03
            1889            2219     100.283E-03     112.656E-03
            1871            2219     100.283E-03     112.656E-03
            1873            2220     111.800E-03     124.165E-03
            1890            2220     111.800E-03     124.165E-03
            1872            2220     111.800E-03     124.165E-03
            1889            2220     111.800E-03     124.165E-03
            1891            2221     123.379E-03     135.781E-03
            1873            2221     123.379E-03     135.781E-03
            1874            2221     123.379E-03     135.781E-03
            1890            2221     123.379E-03     135.781E-03
            1874            2222     134.827E-03     147.242E-03
            1892            2222     134.827E-03     147.242E-03
            1875            2222     134.827E-03     147.242E-03
            1891            2222     134.827E-03     147.242E-03
            1875            2223     146.466E-03     158.764E-03
            1892            2223     146.466E-03     158.764E-03
            1876            2223     146.466E-03     158.764E-03
            1893            2223     146.466E-03     158.764E-03
            1893            2224     157.674E-03     170.152E-03
            1877            2224     157.674E-03     170.152E-03
            1894            2224     157.674E-03     170.152E-03
            1876            2224     157.674E-03     170.152E-03
            1877            2225     171.896E-03     184.514E-03
            1878            2225     171.896E-03     184.514E-03
            1894            2225     171.896E-03     184.514E-03
            1895            2225     171.896E-03     184.514E-03
            1895            2226     200.587E-03     210.576E-03
            1879            2226     200.587E-03     210.576E-03
            1878            2226     200.587E-03     210.576E-03
            1896            2226     200.587E-03     210.576E-03
            1881            2227     28.2475E-03     28.0739E-03
            1897            2227     28.2475E-03     28.0739E-03
            1880            2227     28.2475E-03     28.0739E-03
            1898            2227     28.2475E-03     28.0739E-03
            1899            2228     32.6588E-03     35.5550E-03
            1882            2228     32.6588E-03     35.5550E-03
            1898            2228     32.6588E-03     35.5550E-03
            1881            2228     32.6588E-03     35.5550E-03
            1899            2229     41.1787E-03     44.1462E-03
            1900            2229     41.1787E-03     44.1462E-03
            1882            2229     41.1787E-03     44.1462E-03
            1883            2229     41.1787E-03     44.1462E-03
            1900            2230     51.1140E-03     54.1746E-03
            1884            2230     51.1140E-03     54.1746E-03
            1901            2230     51.1140E-03     54.1746E-03
            1883            2230     51.1140E-03     54.1746E-03
            1902            2231     61.5524E-03     64.8503E-03
            1884            2231     61.5524E-03     64.8503E-03
            1901            2231     61.5524E-03     64.8503E-03
            1885            2231     61.5524E-03     64.8503E-03
            1885            2232     72.4346E-03     75.8062E-03
            1903            2232     72.4346E-03     75.8062E-03
            1902            2232     72.4346E-03     75.8062E-03
            1886            2232     72.4346E-03     75.8062E-03
            1886            2233     83.5449E-03     86.9321E-03
            1887            2233     83.5449E-03     86.9321E-03
            1903            2233     83.5449E-03     86.9321E-03
            1904            2233     83.5449E-03     86.9321E-03
            1887            2234     94.7873E-03     98.2122E-03
            1905            2234     94.7873E-03     98.2122E-03
            1888            2234     94.7873E-03     98.2122E-03
            1904            2234     94.7873E-03     98.2122E-03
            1906            2235     106.145E-03     109.560E-03
            1905            2235     106.145E-03     109.560E-03
            1889            2235     106.145E-03     109.560E-03
            1888            2235     106.145E-03     109.560E-03
            1890            2236     117.575E-03     121.022E-03
            1907            2236     117.575E-03     121.022E-03
            1906            2236     117.575E-03     121.022E-03
            1889            2236     117.575E-03     121.022E-03
            1891            2237     129.097E-03     132.512E-03
            1890            2237     129.097E-03     132.512E-03
            1908            2237     129.097E-03     132.512E-03
            1907            2237     129.097E-03     132.512E-03
            1908            2238     140.743E-03     144.180E-03
            1891            2238     140.743E-03     144.180E-03
            1909            2238     140.743E-03     144.180E-03
            1892            2238     140.743E-03     144.180E-03
            1910            2239     152.542E-03     156.065E-03
            1893            2239     152.542E-03     156.065E-03
            1909            2239     152.542E-03     156.065E-03
            1892            2239     152.542E-03     156.065E-03
            1893            2240     164.592E-03     168.282E-03
            1911            2240     164.592E-03     168.282E-03
            1910            2240     164.592E-03     168.282E-03
            1894            2240     164.592E-03     168.282E-03
            1911            2241     177.867E-03     181.763E-03
            1912            2241     177.867E-03     181.763E-03
            1895            2241     177.867E-03     181.763E-03
            1894            2241     177.867E-03     181.763E-03
            1912            2242     190.617E-03     192.575E-03
            1913            2242     190.617E-03     192.575E-03
            1896            2242     190.617E-03     192.575E-03
            1895            2242     190.617E-03     192.575E-03
            1897            2243     34.0958E-03     34.5503E-03
            1915            2243     34.0958E-03     34.5503E-03
            1898            2243     34.0958E-03     34.5503E-03
            1914            2243     34.0958E-03     34.5503E-03
            1898            2244     40.6545E-03     37.9258E-03
            1916            2244     40.6545E-03     37.9258E-03
            1915            2244     40.6545E-03     37.9258E-03
            1899            2244     40.6545E-03     37.9258E-03
            1916            2245     49.0328E-03     45.1061E-03
            1900            2245     49.0328E-03     45.1061E-03
            1917            2245     49.0328E-03     45.1061E-03
            1899            2245     49.0328E-03     45.1061E-03
            1917            2246     58.5240E-03     54.0733E-03
            1901            2246     58.5240E-03     54.0733E-03
            1918            2246     58.5240E-03     54.0733E-03
            1900            2246     58.5240E-03     54.0733E-03
            1901            2247     68.6589E-03     63.8719E-03
            1918            2247     68.6589E-03     63.8719E-03
            1902            2247     68.6589E-03     63.8719E-03
            1919            2247     68.6589E-03     63.8719E-03
            1920            2248     79.1948E-03     74.2296E-03
            1902            2248     79.1948E-03     74.2296E-03
            1903            2248     79.1948E-03     74.2296E-03
            1919            2248     79.1948E-03     74.2296E-03
            1921            2249     89.9955E-03     84.8993E-03
            1920            2249     89.9955E-03     84.8993E-03
            1904            2249     89.9955E-03     84.8993E-03
            1903            2249     89.9955E-03     84.8993E-03
            1904            2250     100.978E-03     95.7679E-03
            1905            2250     100.978E-03     95.7679E-03
            1921            2250     100.978E-03     95.7679E-03
            1922            2250     100.978E-03     95.7679E-03
            1923            2251     112.025E-03     106.764E-03
            1906            2251     112.025E-03     106.764E-03
            1905            2251     112.025E-03     106.764E-03
            1922            2251     112.025E-03     106.764E-03
            1906            2252     123.164E-03     117.820E-03
            1907            2252     123.164E-03     117.820E-03
            1923            2252     123.164E-03     117.820E-03
            1924            2252     123.164E-03     117.820E-03
            1907            2253     134.229E-03     128.883E-03
            1924            2253     134.229E-03     128.883E-03
            1925            2253     134.229E-03     128.883E-03
            1908            2253     134.229E-03     128.883E-03
            1926            2254     145.438E-03     139.961E-03
            1925            2254     145.438E-03     139.961E-03
            1909            2254     145.438E-03     139.961E-03
            1908            2254     145.438E-03     139.961E-03
            1909            2255     156.414E-03     151.049E-03
            1926            2255     156.414E-03     151.049E-03
            1927            2255     156.414E-03     151.049E-03
            1910            2255     156.414E-03     151.049E-03
            1927            2256     167.705E-03     162.039E-03
            1911            2256     167.705E-03     162.039E-03
            1910            2256     167.705E-03     162.039E-03
            1928            2256     167.705E-03     162.039E-03
            1928            2257     175.766E-03     169.953E-03
            1929            2257     175.766E-03     169.953E-03
            1912            2257     175.766E-03     169.953E-03
            1911            2257     175.766E-03     169.953E-03
            1913            2258     170.873E-03     167.383E-03
            1929            2258     170.873E-03     167.383E-03
            1930            2258     170.873E-03     167.383E-03
            1912            2258     170.873E-03     167.383E-03
            1937            2259     117.550E-03     119.679E-03
            1931            2259     117.550E-03     119.679E-03
            1932            2259     117.550E-03     119.679E-03
            1936            2259     117.550E-03     119.679E-03
            1932            2260     148.837E-03     158.899E-03
            1937            2260     148.837E-03     158.899E-03
            1933            2260     148.837E-03     158.899E-03
            1938            2260     148.837E-03     158.899E-03
            1933            2261     178.213E-03     199.447E-03
            1938            2261     178.213E-03     199.447E-03
            1934            2261     178.213E-03     199.447E-03
            1939            2261     178.213E-03     199.447E-03
            1940            2262     209.990E-03     235.043E-03
            1935            2262     209.990E-03     235.043E-03
            1934            2262     209.990E-03     235.043E-03
            1939            2262     209.990E-03     235.043E-03
            1941            2263     139.168E-03     136.112E-03
            1936            2263     139.168E-03     136.112E-03
            1942            2263     139.168E-03     136.112E-03
            1937            2263     139.168E-03     136.112E-03
            1938            2264     165.708E-03     161.710E-03
            1937            2264     165.708E-03     161.710E-03
            1942            2264     165.708E-03     161.710E-03
            1943            2264     165.708E-03     161.710E-03
            1939            2265     190.769E-03     190.557E-03
            1944            2265     190.769E-03     190.557E-03
            1938            2265     190.769E-03     190.557E-03
            1943            2265     190.769E-03     190.557E-03
            1945            2266     219.553E-03     222.016E-03
            1939            2266     219.553E-03     222.016E-03
            1944            2266     219.553E-03     222.016E-03
            1940            2266     219.553E-03     222.016E-03
            1946            2267     138.492E-03     135.976E-03
            1942            2267     138.492E-03     135.976E-03
            1947            2267     138.492E-03     135.976E-03
            1941            2267     138.492E-03     135.976E-03
            1947            2268     164.306E-03     154.586E-03
            1943            2268     164.306E-03     154.586E-03
            1948            2268     164.306E-03     154.586E-03
            1942            2268     164.306E-03     154.586E-03
            1943            2269     187.717E-03     174.509E-03
            1944            2269     187.717E-03     174.509E-03
            1949            2269     187.717E-03     174.509E-03
            1948            2269     187.717E-03     174.509E-03
            1949            2270     200.277E-03     186.454E-03
            1944            2270     200.277E-03     186.454E-03
            1950            2270     200.277E-03     186.454E-03
            1945            2270     200.277E-03     186.454E-03
            1951            2271     129.950E-03     132.313E-03
            1947            2271     129.950E-03     132.313E-03
            1952            2271     129.950E-03     132.313E-03
            1946            2271     129.950E-03     132.313E-03
            1952            2272     141.648E-03     146.363E-03
            1953            2272     141.648E-03     146.363E-03
            1947            2272     141.648E-03     146.363E-03
            1948            2272     141.648E-03     146.363E-03
            1949            2273     155.408E-03     164.710E-03
            1953            2273     155.408E-03     164.710E-03
            1948            2273     155.408E-03     164.710E-03
            1954            2273     155.408E-03     164.710E-03
            1950            2274     158.510E-03     165.113E-03
            1949            2274     158.510E-03     165.113E-03
            1954            2274     158.510E-03     165.113E-03
            1955            2274     158.510E-03     165.113E-03
            1956            2275     14.7628E-03     18.5678E-03
            1962            2275     14.7628E-03     18.5678E-03
            1961            2275     14.7628E-03     18.5678E-03
            1957            2275     14.7628E-03     18.5678E-03
            1962            2276     27.5760E-03     27.7066E-03
            1957            2276     27.5760E-03     27.7066E-03
            1963            2276     27.5760E-03     27.7066E-03
            1958            2276     27.5760E-03     27.7066E-03
            1963            2277     36.1987E-03     36.0759E-03
            1964            2277     36.1987E-03     36.0759E-03
            1958            2277     36.1987E-03     36.0759E-03
            1959            2277     36.1987E-03     36.0759E-03
            1964            2278     42.6434E-03     42.1575E-03
            1960            2278     42.6434E-03     42.1575E-03
            1959            2278     42.6434E-03     42.1575E-03
            1965            2278     42.6434E-03     42.1575E-03
            1966            2279     16.7702E-03     18.9396E-03
            1967            2279     16.7702E-03     18.9396E-03
            1961            2279     16.7702E-03     18.9396E-03
            1962            2279     16.7702E-03     18.9396E-03
            1968            2280     27.5445E-03     28.0399E-03
            1963            2280     27.5445E-03     28.0399E-03
            1967            2280     27.5445E-03     28.0399E-03
            1962            2280     27.5445E-03     28.0399E-03
            1969            2281     36.3016E-03     36.5172E-03
            1964            2281     36.3016E-03     36.5172E-03
            1963            2281     36.3016E-03     36.5172E-03
            1968            2281     36.3016E-03     36.5172E-03
            1969            2282     43.2850E-03     42.8547E-03
            1970            2282     43.2850E-03     42.8547E-03
            1965            2282     43.2850E-03     42.8547E-03
            1964            2282     43.2850E-03     42.8547E-03
            1966            2283     16.1854E-03     17.9609E-03
            1971            2283     16.1854E-03     17.9609E-03
            1967            2283     16.1854E-03     17.9609E-03
            1972            2283     16.1854E-03     17.9609E-03
            1972            2284     28.3359E-03     29.4936E-03
            1967            2284     28.3359E-03     29.4936E-03
            1968            2284     28.3359E-03     29.4936E-03
            1973            2284     28.3359E-03     29.4936E-03
            1973            2285     37.6192E-03     38.1690E-03
            1969            2285     37.6192E-03     38.1690E-03
            1968            2285     37.6192E-03     38.1690E-03
            1974            2285     37.6192E-03     38.1690E-03
            1969            2286     44.7290E-03     44.3757E-03
            1975            2286     44.7290E-03     44.3757E-03
            1974            2286     44.7290E-03     44.3757E-03
            1970            2286     44.7290E-03     44.3757E-03
            1972            2287     22.5019E-03     21.5574E-03
            1976            2287     22.5019E-03     21.5574E-03
            1977            2287     22.5019E-03     21.5574E-03
            1971            2287     22.5019E-03     21.5574E-03
            1972            2288     31.4113E-03     31.1778E-03
            1978            2288     31.4113E-03     31.1778E-03
            1973            2288     31.4113E-03     31.1778E-03
            1977            2288     31.4113E-03     31.1778E-03
            1973            2289     39.6252E-03     39.7506E-03
            1979            2289     39.6252E-03     39.7506E-03
            1978            2289     39.6252E-03     39.7506E-03
            1974            2289     39.6252E-03     39.7506E-03
            1979            2290     45.3345E-03     44.9410E-03
            1980            2290     45.3345E-03     44.9410E-03
            1975            2290     45.3345E-03     44.9410E-03
            1974            2290     45.3345E-03     44.9410E-03
            1981            2291     30.1489E-03     32.4964E-03
            1982            2291     30.1489E-03     32.4964E-03
            1976            2291     30.1489E-03     32.4964E-03
            1977            2291     30.1489E-03     32.4964E-03
            1978            2292     34.6763E-03     37.0939E-03
            1983            2292     34.6763E-03     37.0939E-03
            1977            2292     34.6763E-03     37.0939E-03
            1982            2292     34.6763E-03     37.0939E-03
            1983            2293     41.2049E-03     42.5938E-03
            1984            2293     41.2049E-03     42.5938E-03
            1978            2293     41.2049E-03     42.5938E-03
            1979            2293     41.2049E-03     42.5938E-03
            1985            2294     45.4843E-03     45.9800E-03
            1984            2294     45.4843E-03     45.9800E-03
            1980            2294     45.4843E-03     45.9800E-03
            1979            2294     45.4843E-03     45.9800E-03
            1981            2295     44.1989E-03     42.6152E-03
            1982            2295     44.1989E-03     42.6152E-03
            1987            2295     44.1989E-03     42.6152E-03
            1986            2295     44.1989E-03     42.6152E-03
            1987            2296     44.5088E-03     42.3744E-03
            1983            2296     44.5088E-03     42.3744E-03
            1988            2296     44.5088E-03     42.3744E-03
            1982            2296     44.5088E-03     42.3744E-03
            1988            2297     46.4422E-03     44.5493E-03
            1984            2297     46.4422E-03     44.5493E-03
            1983            2297     46.4422E-03     44.5493E-03
            1989            2297     46.4422E-03     44.5493E-03
            1989            2298     47.4306E-03     47.0015E-03
            1984            2298     47.4306E-03     47.0015E-03
            1985            2298     47.4306E-03     47.0015E-03
            1990            2298     47.4306E-03     47.0015E-03
            1987            2299     54.0456E-03     53.9630E-03
            1986            2299     54.0456E-03     53.9630E-03
            1991            2299     54.0456E-03     53.9630E-03
            1992            2299     54.0456E-03     53.9630E-03
            1988            2300     49.0747E-03     48.4263E-03
            1993            2300     49.0747E-03     48.4263E-03
            1992            2300     49.0747E-03     48.4263E-03
            1987            2300     49.0747E-03     48.4263E-03
            1993            2301     48.6193E-03     46.9308E-03
            1988            2301     48.6193E-03     46.9308E-03
            1994            2301     48.6193E-03     46.9308E-03
            1989            2301     48.6193E-03     46.9308E-03
            1989            2302     48.0485E-03     46.8463E-03
            1994            2302     48.0485E-03     46.8463E-03
            1995            2302     48.0485E-03     46.8463E-03
            1990            2302     48.0485E-03     46.8463E-03
            1991            2303     47.2824E-03     54.5271E-03
            1996            2303     47.2824E-03     54.5271E-03
            1997            2303     47.2824E-03     54.5271E-03
            1992            2303     47.2824E-03     54.5271E-03
            1993            2304     44.8389E-03     52.2512E-03
            1992            2304     44.8389E-03     52.2512E-03
            1997            2304     44.8389E-03     52.2512E-03
            1998            2304     44.8389E-03     52.2512E-03
            1993            2305     45.1489E-03     48.1645E-03
            1994            2305     45.1489E-03     48.1645E-03
            1998            2305     45.1489E-03     48.1645E-03
            1999            2305     45.1489E-03     48.1645E-03
            1995            2306     46.6366E-03     46.6914E-03
            1999            2306     46.6366E-03     46.6914E-03
            1994            2306     46.6366E-03     46.6914E-03
            2000            2306     46.6366E-03     46.6914E-03
            1996            2307     47.5772E-03     46.0193E-03
            2002            2307     47.5772E-03     46.0193E-03
            1997            2307     47.5772E-03     46.0193E-03
            2001            2307     47.5772E-03     46.0193E-03
            1998            2308     48.8546E-03     49.7032E-03
            1997            2308     48.8546E-03     49.7032E-03
            2002            2308     48.8546E-03     49.7032E-03
            2003            2308     48.8546E-03     49.7032E-03
            1998            2309     46.8280E-03     47.6263E-03
            2003            2309     46.8280E-03     47.6263E-03
            1999            2309     46.8280E-03     47.6263E-03
            2004            2309     46.8280E-03     47.6263E-03
            2004            2310     47.3459E-03     46.9710E-03
            1999            2310     47.3459E-03     46.9710E-03
            2005            2310     47.3459E-03     46.9710E-03
            2000            2310     47.3459E-03     46.9710E-03
            2006            2311     52.8852E-03     54.2005E-03
            2002            2311     52.8852E-03     54.2005E-03
            2007            2311     52.8852E-03     54.2005E-03
            2001            2311     52.8852E-03     54.2005E-03
            2007            2312     52.5839E-03     54.4432E-03
            2008            2312     52.5839E-03     54.4432E-03
            2002            2312     52.5839E-03     54.4432E-03
            2003            2312     52.5839E-03     54.4432E-03
            2008            2313     50.7503E-03     51.7007E-03
            2004            2313     50.7503E-03     51.7007E-03
            2009            2313     50.7503E-03     51.7007E-03
            2003            2313     50.7503E-03     51.7007E-03
            2004            2314     48.8649E-03     48.6460E-03
            2010            2314     48.8649E-03     48.6460E-03
            2009            2314     48.8649E-03     48.6460E-03
            2005            2314     48.8649E-03     48.6460E-03
            2006            2315     62.2915E-03     61.7714E-03
            2012            2315     62.2915E-03     61.7714E-03
            2011            2315     62.2915E-03     61.7714E-03
            2007            2315     62.2915E-03     61.7714E-03
            2012            2316     58.3471E-03     58.1126E-03
            2013            2316     58.3471E-03     58.1126E-03
            2007            2316     58.3471E-03     58.1126E-03
            2008            2316     58.3471E-03     58.1126E-03
            2008            2317     54.8808E-03     54.3252E-03
            2009            2317     54.8808E-03     54.3252E-03
            2013            2317     54.8808E-03     54.3252E-03
            2014            2317     54.8808E-03     54.3252E-03
            2009            2318     50.8173E-03     50.2879E-03
            2010            2318     50.8173E-03     50.2879E-03
            2015            2318     50.8173E-03     50.2879E-03
            2014            2318     50.8173E-03     50.2879E-03
            2012            2319     69.6567E-03     75.0167E-03
            2016            2319     69.6567E-03     75.0167E-03
            2017            2319     69.6567E-03     75.0167E-03
            2011            2319     69.6567E-03     75.0167E-03
            2013            2320     62.8251E-03     68.0247E-03
            2017            2320     62.8251E-03     68.0247E-03
            2012            2320     62.8251E-03     68.0247E-03
            2018            2320     62.8251E-03     68.0247E-03
            2014            2321     57.6038E-03     59.7145E-03
            2013            2321     57.6038E-03     59.7145E-03
            2019            2321     57.6038E-03     59.7145E-03
            2018            2321     57.6038E-03     59.7145E-03
            2019            2322     51.4960E-03     52.5020E-03
            2015            2322     51.4960E-03     52.5020E-03
            2014            2322     51.4960E-03     52.5020E-03
            2020            2322     51.4960E-03     52.5020E-03
            2022            2323     87.0353E-03     85.1968E-03
            2017            2323     87.0353E-03     85.1968E-03
            2021            2323     87.0353E-03     85.1968E-03
            2016            2323     87.0353E-03     85.1968E-03
            2023            2324     77.6405E-03     74.9141E-03
            2022            2324     77.6405E-03     74.9141E-03
            2017            2324     77.6405E-03     74.9141E-03
            2018            2324     77.6405E-03     74.9141E-03
            2018            2325     66.8604E-03     63.0747E-03
            2019            2325     66.8604E-03     63.0747E-03
            2024            2325     66.8604E-03     63.0747E-03
            2023            2325     66.8604E-03     63.0747E-03
            2024            2326     55.0084E-03     54.1615E-03
            2019            2326     55.0084E-03     54.1615E-03
            2025            2326     55.0084E-03     54.1615E-03
            2020            2326     55.0084E-03     54.1615E-03
            2021            2327     98.1510E-03     97.3267E-03
            2027            2327     98.1510E-03     97.3267E-03
            2026            2327     98.1510E-03     97.3267E-03
            2022            2327     98.1510E-03     97.3267E-03
            2023            2328     83.7880E-03     82.2647E-03
            2027            2328     83.7880E-03     82.2647E-03
            2028            2328     83.7880E-03     82.2647E-03
            2022            2328     83.7880E-03     82.2647E-03
            2028            2329     69.6203E-03     66.3573E-03
            2024            2329     69.6203E-03     66.3573E-03
            2029            2329     69.6203E-03     66.3573E-03
            2023            2329     69.6203E-03     66.3573E-03
            2030            2330     55.5800E-03     53.5847E-03
            2024            2330     55.5800E-03     53.5847E-03
            2025            2330     55.5800E-03     53.5847E-03
            2029            2330     55.5800E-03     53.5847E-03
            2031            2331     86.3784E-03     99.9675E-03
            2032            2331     86.3784E-03     99.9675E-03
            2026            2331     86.3784E-03     99.9675E-03
            2027            2331     86.3784E-03     99.9675E-03
            2032            2332     73.6203E-03     88.5867E-03
            2033            2332     73.6203E-03     88.5867E-03
            2027            2332     73.6203E-03     88.5867E-03
            2028            2332     73.6203E-03     88.5867E-03
            2033            2333     61.6040E-03     69.0513E-03
            2034            2333     61.6040E-03     69.0513E-03
            2028            2333     61.6040E-03     69.0513E-03
            2029            2333     61.6040E-03     69.0513E-03
            2035            2334     52.1647E-03     53.5461E-03
            2030            2334     52.1647E-03     53.5461E-03
            2034            2334     52.1647E-03     53.5461E-03
            2029            2334     52.1647E-03     53.5461E-03
            2031            2335     89.2628E-03     88.5659E-03
            2036            2335     89.2628E-03     88.5659E-03
            2032            2335     89.2628E-03     88.5659E-03
            2037            2335     89.2628E-03     88.5659E-03
            2033            2336     82.0508E-03     82.9975E-03
            2038            2336     82.0508E-03     82.9975E-03
            2032            2336     82.0508E-03     82.9975E-03
            2037            2336     82.0508E-03     82.9975E-03
            2034            2337     66.9953E-03     66.9728E-03
            2039            2337     66.9953E-03     66.9728E-03
            2033            2337     66.9953E-03     66.9728E-03
            2038            2337     66.9953E-03     66.9728E-03
            2034            2338     54.3994E-03     54.0637E-03
            2040            2338     54.3994E-03     54.0637E-03
            2035            2338     54.3994E-03     54.0637E-03
            2039            2338     54.3994E-03     54.0637E-03
            2037            2339     96.8133E-03     93.4072E-03
            2042            2339     96.8133E-03     93.4072E-03
            2036            2339     96.8133E-03     93.4072E-03
            2041            2339     96.8133E-03     93.4072E-03
            2043            2340     87.9253E-03     85.1115E-03
            2037            2340     87.9253E-03     85.1115E-03
            2038            2340     87.9253E-03     85.1115E-03
            2042            2340     87.9253E-03     85.1115E-03
            2043            2341     73.2030E-03     70.7076E-03
            2038            2341     73.2030E-03     70.7076E-03
            2044            2341     73.2030E-03     70.7076E-03
            2039            2341     73.2030E-03     70.7076E-03
            2039            2342     57.5261E-03     55.9989E-03
            2044            2342     57.5261E-03     55.9989E-03
            2045            2342     57.5261E-03     55.9989E-03
            2040            2342     57.5261E-03     55.9989E-03
            2047            2343     98.1255E-03     108.078E-03
            2041            2343     98.1255E-03     108.078E-03
            2046            2343     98.1255E-03     108.078E-03
            2042            2343     98.1255E-03     108.078E-03
            2048            2344     85.6963E-03     95.9698E-03
            2042            2344     85.6963E-03     95.9698E-03
            2047            2344     85.6963E-03     95.9698E-03
            2043            2344     85.6963E-03     95.9698E-03
            2044            2345     73.2094E-03     78.3433E-03
            2048            2345     73.2094E-03     78.3433E-03
            2049            2345     73.2094E-03     78.3433E-03
            2043            2345     73.2094E-03     78.3433E-03
            2045            2346     57.8338E-03     59.9434E-03
            2044            2346     57.8338E-03     59.9434E-03
            2050            2346     57.8338E-03     59.9434E-03
            2049            2346     57.8338E-03     59.9434E-03
            2052            2347     120.341E-03     116.198E-03
            2047            2347     120.341E-03     116.198E-03
            2051            2347     120.341E-03     116.198E-03
            2046            2347     120.341E-03     116.198E-03
            2052            2348     105.532E-03     100.149E-03
            2047            2348     105.532E-03     100.149E-03
            2053            2348     105.532E-03     100.149E-03
            2048            2348     105.532E-03     100.149E-03
            2054            2349     85.5908E-03     80.0262E-03
            2049            2349     85.5908E-03     80.0262E-03
            2048            2349     85.5908E-03     80.0262E-03
            2053            2349     85.5908E-03     80.0262E-03
            2054            2350     62.2988E-03     61.3739E-03
            2055            2350     62.2988E-03     61.3739E-03
            2049            2350     62.2988E-03     61.3739E-03
            2050            2350     62.2988E-03     61.3739E-03
            2057            2351     131.541E-03     130.871E-03
            2056            2351     131.541E-03     130.871E-03
            2052            2351     131.541E-03     130.871E-03
            2051            2351     131.541E-03     130.871E-03
            2057            2352     111.167E-03     109.542E-03
            2053            2352     111.167E-03     109.542E-03
            2052            2352     111.167E-03     109.542E-03
            2058            2352     111.167E-03     109.542E-03
            2059            2353     87.7885E-03     83.6623E-03
            2053            2353     87.7885E-03     83.6623E-03
            2058            2353     87.7885E-03     83.6623E-03
            2054            2353     87.7885E-03     83.6623E-03
            2059            2354     62.4984E-03     60.1482E-03
            2055            2354     62.4984E-03     60.1482E-03
            2054            2354     62.4984E-03     60.1482E-03
            2060            2354     62.4984E-03     60.1482E-03
            2056            2355     118.476E-03     137.866E-03
            2057            2355     118.476E-03     137.866E-03
            2061            2355     118.476E-03     137.866E-03
            2062            2355     118.476E-03     137.866E-03
            2057            2356     98.6390E-03     119.865E-03
            2063            2356     98.6390E-03     119.865E-03
            2058            2356     98.6390E-03     119.865E-03
            2062            2356     98.6390E-03     119.865E-03
            2064            2357     77.2466E-03     88.0805E-03
            2059            2357     77.2466E-03     88.0805E-03
            2058            2357     77.2466E-03     88.0805E-03
            2063            2357     77.2466E-03     88.0805E-03
            2065            2358     57.8984E-03     60.3704E-03
            2059            2358     57.8984E-03     60.3704E-03
            2060            2358     57.8984E-03     60.3704E-03
            2064            2358     57.8984E-03     60.3704E-03
            2061            2359     126.048E-03     123.039E-03
            2067            2359     126.048E-03     123.039E-03
            2062            2359     126.048E-03     123.039E-03
            2066            2359     126.048E-03     123.039E-03
            2063            2360     111.550E-03     111.658E-03
            2067            2360     111.550E-03     111.658E-03
            2062            2360     111.550E-03     111.658E-03
            2068            2360     111.550E-03     111.658E-03
            2064            2361     85.3692E-03     84.8734E-03
            2069            2361     85.3692E-03     84.8734E-03
            2068            2361     85.3692E-03     84.8734E-03
            2063            2361     85.3692E-03     84.8734E-03
            2069            2362     61.4507E-03     60.4601E-03
            2064            2362     61.4507E-03     60.4601E-03
            2070            2362     61.4507E-03     60.4601E-03
            2065            2362     61.4507E-03     60.4601E-03
            2067            2363     129.089E-03     130.248E-03
            2072            2363     129.089E-03     130.248E-03
            2066            2363     129.089E-03     130.248E-03
            2071            2363     129.089E-03     130.248E-03
            2068            2364     115.111E-03     116.164E-03
            2072            2364     115.111E-03     116.164E-03
            2073            2364     115.111E-03     116.164E-03
            2067            2364     115.111E-03     116.164E-03
            2073            2365     91.9803E-03     90.9387E-03
            2068            2365     91.9803E-03     90.9387E-03
            2074            2365     91.9803E-03     90.9387E-03
            2069            2365     91.9803E-03     90.9387E-03
            2070            2366     65.3267E-03     63.9932E-03
            2069            2366     65.3267E-03     63.9932E-03
            2074            2366     65.3267E-03     63.9932E-03
            2075            2366     65.3267E-03     63.9932E-03
            2071            2367     134.546E-03     137.038E-03
            2077            2367     134.546E-03     137.038E-03
            2072            2367     134.546E-03     137.038E-03
            2076            2367     134.546E-03     137.038E-03
            2078            2368     116.328E-03     119.149E-03
            2073            2368     116.328E-03     119.149E-03
            2072            2368     116.328E-03     119.149E-03
            2077            2368     116.328E-03     119.149E-03
            2078            2369     94.3179E-03     94.2916E-03
            2073            2369     94.3179E-03     94.2916E-03
            2079            2369     94.3179E-03     94.2916E-03
            2074            2369     94.3179E-03     94.2916E-03
            2074            2370     67.9037E-03     67.1391E-03
            2075            2370     67.9037E-03     67.1391E-03
            2079            2370     67.9037E-03     67.1391E-03
            2080            2370     67.9037E-03     67.1391E-03
            2076            2371     142.018E-03     150.432E-03
            2077            2371     142.018E-03     150.432E-03
            2081            2371     142.018E-03     150.432E-03
            2082            2371     142.018E-03     150.432E-03
            2077            2372     121.174E-03     129.698E-03
            2078            2372     121.174E-03     129.698E-03
            2082            2372     121.174E-03     129.698E-03
            2083            2372     121.174E-03     129.698E-03
            2084            2373     97.7264E-03     100.748E-03
            2079            2373     97.7264E-03     100.748E-03
            2078            2373     97.7264E-03     100.748E-03
            2083            2373     97.7264E-03     100.748E-03
            2079            2374     68.6356E-03     70.4485E-03
            2080            2374     68.6356E-03     70.4485E-03
            2084            2374     68.6356E-03     70.4485E-03
            2085            2374     68.6356E-03     70.4485E-03
            2081            2375     163.799E-03     161.740E-03
            2082            2375     163.799E-03     161.740E-03
            2086            2375     163.799E-03     161.740E-03
            2087            2375     163.799E-03     161.740E-03
            2088            2376     141.878E-03     138.162E-03
            2087            2376     141.878E-03     138.162E-03
            2082            2376     141.878E-03     138.162E-03
            2083            2376     141.878E-03     138.162E-03
            2089            2377     111.421E-03     105.022E-03
            2084            2377     111.421E-03     105.022E-03
            2083            2377     111.421E-03     105.022E-03
            2088            2377     111.421E-03     105.022E-03
            2084            2378     73.7579E-03     72.4412E-03
            2085            2378     73.7579E-03     72.4412E-03
            2089            2378     73.7579E-03     72.4412E-03
            2090            2378     73.7579E-03     72.4412E-03
            2091            2379     177.601E-03     175.373E-03
            2092            2379     177.601E-03     175.373E-03
            2086            2379     177.601E-03     175.373E-03
            2087            2379     177.601E-03     175.373E-03
            2093            2380     149.313E-03     146.803E-03
            2087            2380     149.313E-03     146.803E-03
            2088            2380     149.313E-03     146.803E-03
            2092            2380     149.313E-03     146.803E-03
            2094            2381     113.303E-03     107.982E-03
            2089            2381     113.303E-03     107.982E-03
            2088            2381     113.303E-03     107.982E-03
            2093            2381     113.303E-03     107.982E-03
            2090            2382     73.2119E-03     70.0901E-03
            2089            2382     73.2119E-03     70.0901E-03
            2095            2382     73.2119E-03     70.0901E-03
            2094            2382     73.2119E-03     70.0901E-03
            2096            2383     158.645E-03     184.308E-03
            2097            2383     158.645E-03     184.308E-03
            2092            2383     158.645E-03     184.308E-03
            2091            2383     158.645E-03     184.308E-03
            2093            2384     130.234E-03     158.901E-03
            2097            2384     130.234E-03     158.901E-03
            2098            2384     130.234E-03     158.901E-03
            2092            2384     130.234E-03     158.901E-03
            2098            2385     97.9989E-03     113.367E-03
            2094            2385     97.9989E-03     113.367E-03
            2093            2385     97.9989E-03     113.367E-03
            2099            2385     97.9989E-03     113.367E-03
            2100            2386     66.3956E-03     70.5158E-03
            2095            2386     66.3956E-03     70.5158E-03
            2094            2386     66.3956E-03     70.5158E-03
            2099            2386     66.3956E-03     70.5158E-03
            2102            2387     167.609E-03     166.372E-03
            2096            2387     167.609E-03     166.372E-03
            2101            2387     167.609E-03     166.372E-03
            2097            2387     167.609E-03     166.372E-03
            2097            2388     146.722E-03     147.279E-03
            2103            2388     146.722E-03     147.279E-03
            2098            2388     146.722E-03     147.279E-03
            2102            2388     146.722E-03     147.279E-03
            2098            2389     109.938E-03     108.458E-03
            2099            2389     109.938E-03     108.458E-03
            2104            2389     109.938E-03     108.458E-03
            2103            2389     109.938E-03     108.458E-03
            2099            2390     72.0965E-03     71.1705E-03
            2105            2390     72.0965E-03     71.1705E-03
            2104            2390     72.0965E-03     71.1705E-03
            2100            2390     72.0965E-03     71.1705E-03
            2102            2391     174.127E-03     167.999E-03
            2106            2391     174.127E-03     167.999E-03
            2107            2391     174.127E-03     167.999E-03
            2101            2391     174.127E-03     167.999E-03
            2107            2392     153.013E-03     146.958E-03
            2103            2392     153.013E-03     146.958E-03
            2102            2392     153.013E-03     146.958E-03
            2108            2392     153.013E-03     146.958E-03
            2104            2393     118.584E-03     112.654E-03
            2103            2393     118.584E-03     112.654E-03
            2109            2393     118.584E-03     112.654E-03
            2108            2393     118.584E-03     112.654E-03
            2105            2394     77.4238E-03     74.3821E-03
            2109            2394     77.4238E-03     74.3821E-03
            2110            2394     77.4238E-03     74.3821E-03
            2104            2394     77.4238E-03     74.3821E-03
            2111            2395     167.883E-03     185.282E-03
            2106            2395     167.883E-03     185.282E-03
            2107            2395     167.883E-03     185.282E-03
            2112            2395     167.883E-03     185.282E-03
            2113            2396     142.644E-03     160.780E-03
            2108            2396     142.644E-03     160.780E-03
            2107            2396     142.644E-03     160.780E-03
            2112            2396     142.644E-03     160.780E-03
            2108            2397     114.133E-03     123.409E-03
            2113            2397     114.133E-03     123.409E-03
            2109            2397     114.133E-03     123.409E-03
            2114            2397     114.133E-03     123.409E-03
            2115            2398     76.3576E-03     80.6333E-03
            2110            2398     76.3576E-03     80.6333E-03
            2114            2398     76.3576E-03     80.6333E-03
            2109            2398     76.3576E-03     80.6333E-03
            2117            2399     197.758E-03     190.909E-03
            2112            2399     197.758E-03     190.909E-03
            2111            2399     197.758E-03     190.909E-03
            2116            2399     197.758E-03     190.909E-03
            2112            2400     171.022E-03     162.407E-03
            2117            2400     171.022E-03     162.407E-03
            2113            2400     171.022E-03     162.407E-03
            2118            2400     171.022E-03     162.407E-03
            2113            2401     131.989E-03     122.936E-03
            2119            2401     131.989E-03     122.936E-03
            2118            2401     131.989E-03     122.936E-03
            2114            2401     131.989E-03     122.936E-03
            2115            2402     82.7640E-03     81.1748E-03
            2114            2402     82.7640E-03     81.1748E-03
            2120            2402     82.7640E-03     81.1748E-03
            2119            2402     82.7640E-03     81.1748E-03
            2116            2403     210.120E-03     208.920E-03
            2117            2403     210.120E-03     208.920E-03
            2122            2403     210.120E-03     208.920E-03
            2121            2403     210.120E-03     208.920E-03
            2118            2404     176.681E-03     174.540E-03
            2117            2404     176.681E-03     174.540E-03
            2123            2404     176.681E-03     174.540E-03
            2122            2404     176.681E-03     174.540E-03
            2123            2405     132.695E-03     126.751E-03
            2124            2405     132.695E-03     126.751E-03
            2119            2405     132.695E-03     126.751E-03
            2118            2405     132.695E-03     126.751E-03
            2120            2406     81.6302E-03     78.3049E-03
            2124            2406     81.6302E-03     78.3049E-03
            2125            2406     81.6302E-03     78.3049E-03
            2119            2406     81.6302E-03     78.3049E-03
            2127            2407     190.860E-03     211.325E-03
            2122            2407     190.860E-03     211.325E-03
            2126            2407     190.860E-03     211.325E-03
            2121            2407     190.860E-03     211.325E-03
            2127            2408     157.674E-03     178.307E-03
            2122            2408     157.674E-03     178.307E-03
            2128            2408     157.674E-03     178.307E-03
            2123            2408     157.674E-03     178.307E-03
            2123            2409     117.423E-03     128.364E-03
            2124            2409     117.423E-03     128.364E-03
            2128            2409     117.423E-03     128.364E-03
            2129            2409     117.423E-03     128.364E-03
            2129            2410     70.7486E-03     73.6247E-03
            2124            2410     70.7486E-03     73.6247E-03
            2130            2410     70.7486E-03     73.6247E-03
            2125            2410     70.7486E-03     73.6247E-03
            2252            2487     209.990E-03     235.043E-03
            2256            2487     209.990E-03     235.043E-03
            2257            2487     209.990E-03     235.043E-03
            2251            2487     209.990E-03     235.043E-03
            2258            2488     178.213E-03     199.447E-03
            2257            2488     178.213E-03     199.447E-03
            2253            2488     178.213E-03     199.447E-03
            2252            2488     178.213E-03     199.447E-03
            2258            2489     148.837E-03     158.899E-03
            2253            2489     148.837E-03     158.899E-03
            2259            2489     148.837E-03     158.899E-03
            2254            2489     148.837E-03     158.899E-03
            2260            2490     117.550E-03     119.679E-03
            2255            2490     117.550E-03     119.679E-03
            2254            2490     117.550E-03     119.679E-03
            2259            2490     117.550E-03     119.679E-03
            2262            2491     219.553E-03     222.016E-03
            2256            2491     219.553E-03     222.016E-03
            2261            2491     219.553E-03     222.016E-03
            2257            2491     219.553E-03     222.016E-03
            2257            2492     190.769E-03     190.557E-03
            2258            2492     190.769E-03     190.557E-03
            2262            2492     190.769E-03     190.557E-03
            2263            2492     190.769E-03     190.557E-03
            2258            2493     165.708E-03     161.710E-03
            2263            2493     165.708E-03     161.710E-03
            2264            2493     165.708E-03     161.710E-03
            2259            2493     165.708E-03     161.710E-03
            2259            2494     139.168E-03     136.112E-03
            2260            2494     139.168E-03     136.112E-03
            2265            2494     139.168E-03     136.112E-03
            2264            2494     139.168E-03     136.112E-03
            2261            2495     200.277E-03     186.454E-03
            2262            2495     200.277E-03     186.454E-03
            2267            2495     200.277E-03     186.454E-03
            2266            2495     200.277E-03     186.454E-03
            2262            2496     187.717E-03     174.509E-03
            2267            2496     187.717E-03     174.509E-03
            2268            2496     187.717E-03     174.509E-03
            2263            2496     187.717E-03     174.509E-03
            2268            2497     164.306E-03     154.586E-03
            2263            2497     164.306E-03     154.586E-03
            2264            2497     164.306E-03     154.586E-03
            2269            2497     164.306E-03     154.586E-03
            2265            2498     138.492E-03     135.976E-03
            2270            2498     138.492E-03     135.976E-03
            2269            2498     138.492E-03     135.976E-03
            2264            2498     138.492E-03     135.976E-03
            2266            2499     158.510E-03     165.113E-03
            2271            2499     158.510E-03     165.113E-03
            2267            2499     158.510E-03     165.113E-03
            2272            2499     158.510E-03     165.113E-03
            2267            2500     155.408E-03     164.710E-03
            2272            2500     155.408E-03     164.710E-03
            2268            2500     155.408E-03     164.710E-03
            2273            2500     155.408E-03     164.710E-03
            2274            2501     141.648E-03     146.363E-03
            2269            2501     141.648E-03     146.363E-03
            2268            2501     141.648E-03     146.363E-03
            2273            2501     141.648E-03     146.363E-03
            2269            2502     129.950E-03     132.313E-03
            2275            2502     129.950E-03     132.313E-03
            2274            2502     129.950E-03     132.313E-03
            2270            2502     129.950E-03     132.313E-03
            2277            2503     123.575E-03     122.982E-03
            2276            2503     123.575E-03     122.982E-03
            2282            2503     123.575E-03     122.982E-03
            2281            2503     123.575E-03     122.982E-03
            2277            2504     128.347E-03     129.063E-03
            2282            2504     128.347E-03     129.063E-03
            2278            2504     128.347E-03     129.063E-03
            2283            2504     128.347E-03     129.063E-03
            2279            2505     135.158E-03     137.033E-03
            2283            2505     135.158E-03     137.033E-03
            2284            2505     135.158E-03     137.033E-03
            2278            2505     135.158E-03     137.033E-03
            2284            2506     139.354E-03     141.767E-03
            2279            2506     139.354E-03     141.767E-03
            2285            2506     139.354E-03     141.767E-03
            2280            2506     139.354E-03     141.767E-03
            2287            2507     129.868E-03     128.505E-03
            2282            2507     129.868E-03     128.505E-03
            2286            2507     129.868E-03     128.505E-03
            2281            2507     129.868E-03     128.505E-03
            2288            2508     130.160E-03     132.445E-03
            2283            2508     130.160E-03     132.445E-03
            2287            2508     130.160E-03     132.445E-03
            2282            2508     130.160E-03     132.445E-03
            2289            2509     131.807E-03     140.991E-03
            2284            2509     131.807E-03     140.991E-03
            2283            2509     131.807E-03     140.991E-03
            2288            2509     131.807E-03     140.991E-03
            2285            2510     138.159E-03     148.427E-03
            2290            2510     138.159E-03     148.427E-03
            2289            2510     138.159E-03     148.427E-03
            2284            2510     138.159E-03     148.427E-03
            2286            2511     129.606E-03     126.092E-03
            2291            2511     129.606E-03     126.092E-03
            2292            2511     129.606E-03     126.092E-03
            2287            2511     129.606E-03     126.092E-03
            2292            2512     132.171E-03     127.467E-03
            2287            2512     132.171E-03     127.467E-03
            2288            2512     132.171E-03     127.467E-03
            2293            2512     132.171E-03     127.467E-03
            2288            2513     135.753E-03     133.920E-03
            2293            2513     135.753E-03     133.920E-03
            2289            2513     135.753E-03     133.920E-03
            2294            2513     135.753E-03     133.920E-03
            2290            2514     150.414E-03     150.251E-03
            2289            2514     150.414E-03     150.251E-03
            2295            2514     150.414E-03     150.251E-03
            2294            2514     150.414E-03     150.251E-03
            2291            2515     127.775E-03     126.332E-03
            2297            2515     127.775E-03     126.332E-03
            2296            2515     127.775E-03     126.332E-03
            2292            2515     127.775E-03     126.332E-03
            2298            2516     125.933E-03     120.461E-03
            2293            2516     125.933E-03     120.461E-03
            2292            2516     125.933E-03     120.461E-03
            2297            2516     125.933E-03     120.461E-03
            2298            2517     122.698E-03     117.324E-03
            2293            2517     122.698E-03     117.324E-03
            2299            2517     122.698E-03     117.324E-03
            2294            2517     122.698E-03     117.324E-03
            2299            2518     124.523E-03     119.911E-03
            2294            2518     124.523E-03     119.911E-03
            2295            2518     124.523E-03     119.911E-03
            2300            2518     124.523E-03     119.911E-03
            2302            2519     122.337E-03     123.696E-03
            2297            2519     122.337E-03     123.696E-03
            2296            2519     122.337E-03     123.696E-03
            2301            2519     122.337E-03     123.696E-03
            2297            2520     111.313E-03     114.840E-03
            2302            2520     111.313E-03     114.840E-03
            2303            2520     111.313E-03     114.840E-03
            2298            2520     111.313E-03     114.840E-03
            2303            2521     94.7966E-03     102.763E-03
            2304            2521     94.7966E-03     102.763E-03
            2298            2521     94.7966E-03     102.763E-03
            2299            2521     94.7966E-03     102.763E-03
            2305            2522     85.4715E-03     94.8066E-03
            2300            2522     85.4715E-03     94.8066E-03
            2299            2522     85.4715E-03     94.8066E-03
            2304            2522     85.4715E-03     94.8066E-03
            2306            2523     121.394E-03     120.934E-03
            2307            2523     121.394E-03     120.934E-03
            2301            2523     121.394E-03     120.934E-03
            2302            2523     121.394E-03     120.934E-03
            2303            2524     107.309E-03     106.445E-03
            2302            2524     107.309E-03     106.445E-03
            2307            2524     107.309E-03     106.445E-03
            2308            2524     107.309E-03     106.445E-03
            2303            2525     86.0178E-03     82.4251E-03
            2309            2525     86.0178E-03     82.4251E-03
            2308            2525     86.0178E-03     82.4251E-03
            2304            2525     86.0178E-03     82.4251E-03
            2310            2526     67.1905E-03     61.8241E-03
            2305            2526     67.1905E-03     61.8241E-03
            2309            2526     67.1905E-03     61.8241E-03
            2304            2526     67.1905E-03     61.8241E-03
            2311            2527     119.886E-03     119.576E-03
            2306            2527     119.886E-03     119.576E-03
            2312            2527     119.886E-03     119.576E-03
            2307            2527     119.886E-03     119.576E-03
            2312            2528     101.279E-03     103.426E-03
            2308            2528     101.279E-03     103.426E-03
            2313            2528     101.279E-03     103.426E-03
            2307            2528     101.279E-03     103.426E-03
            2308            2529     75.0477E-03     77.0430E-03
            2313            2529     75.0477E-03     77.0430E-03
            2314            2529     75.0477E-03     77.0430E-03
            2309            2529     75.0477E-03     77.0430E-03
            2309            2530     43.6384E-03     44.7005E-03
            2315            2530     43.6384E-03     44.7005E-03
            2310            2530     43.6384E-03     44.7005E-03
            2314            2530     43.6384E-03     44.7005E-03
            2311            2531     119.274E-03     117.890E-03
            2316            2531     119.274E-03     117.890E-03
            2317            2531     119.274E-03     117.890E-03
            2312            2531     119.274E-03     117.890E-03
            2318            2532     98.0440E-03     99.7668E-03
            2312            2532     98.0440E-03     99.7668E-03
            2313            2532     98.0440E-03     99.7668E-03
            2317            2532     98.0440E-03     99.7668E-03
            2319            2533     71.3353E-03     74.0616E-03
            2314            2533     71.3353E-03     74.0616E-03
            2318            2533     71.3353E-03     74.0616E-03
            2313            2533     71.3353E-03     74.0616E-03
            2315            2534     38.4581E-03     43.4165E-03
            2314            2534     38.4581E-03     43.4165E-03
            2320            2534     38.4581E-03     43.4165E-03
            2319            2534     38.4581E-03     43.4165E-03
            2322            2535     95.9621E-03     95.3657E-03
            2317            2535     95.9621E-03     95.3657E-03
            2321            2535     95.9621E-03     95.3657E-03
            2316            2535     95.9621E-03     95.3657E-03
            2317            2536     81.1954E-03     81.5470E-03
            2323            2536     81.1954E-03     81.5470E-03
            2318            2536     81.1954E-03     81.5470E-03
            2322            2536     81.1954E-03     81.5470E-03
            2323            2537     61.2002E-03     62.1639E-03
            2324            2537     61.2002E-03     62.1639E-03
            2319            2537     61.2002E-03     62.1639E-03
            2318            2537     61.2002E-03     62.1639E-03
            2324            2538     38.6752E-03     41.8275E-03
            2319            2538     38.6752E-03     41.8275E-03
            2325            2538     38.6752E-03     41.8275E-03
            2320            2538     38.6752E-03     41.8275E-03
            2372            2565     12.5417E-15     12.4364E-15
            2389            2565     12.5417E-15     12.4364E-15
            2371            2565     12.5417E-15     12.4364E-15
            2388            2565     12.5417E-15     12.4364E-15
            2389            2566     13.2013E-15     13.1174E-15
            2372            2566     13.2013E-15     13.1174E-15
            2390            2566     13.2013E-15     13.1174E-15
            2373            2566     13.2013E-15     13.1174E-15
            2373            2567     18.5586E-15     18.3145E-15
            2390            2567     18.5586E-15     18.3145E-15
            2374            2567     18.5586E-15     18.3145E-15
            2391            2567     18.5586E-15     18.3145E-15
            2375            2568     19.4904E-15     18.3353E-15
            2392            2568     19.4904E-15     18.3353E-15
            2374            2568     19.4904E-15     18.3353E-15
            2391            2568     19.4904E-15     18.3353E-15
            2376            2569     16.7915E-15     14.7999E-15
            2392            2569     16.7915E-15     14.7999E-15
            2393            2569     16.7915E-15     14.7999E-15
            2375            2569     16.7915E-15     14.7999E-15
            2377            2570     14.8592E-15     12.4822E-15
            2376            2570     14.8592E-15     12.4822E-15
            2394            2570     14.8592E-15     12.4822E-15
            2393            2570     14.8592E-15     12.4822E-15
            2394            2571     9.77467E-15     6.64679E-15
            2395            2571     9.77467E-15     6.64679E-15
            2377            2571     9.77467E-15     6.64679E-15
            2378            2571     9.77467E-15     6.64679E-15
            2379            2572     10.3665E-15     8.67700E-15
            2396            2572     10.3665E-15     8.67700E-15
            2378            2572     10.3665E-15     8.67700E-15
            2395            2572     10.3665E-15     8.67700E-15
            2380            2573     14.0287E-15     12.5141E-15
            2397            2573     14.0287E-15     12.5141E-15
            2396            2573     14.0287E-15     12.5141E-15
            2379            2573     14.0287E-15     12.5141E-15
            2397            2574     17.4793E-15     15.7409E-15
            2381            2574     17.4793E-15     15.7409E-15
            2380            2574     17.4793E-15     15.7409E-15
            2398            2574     17.4793E-15     15.7409E-15
            2382            2575     18.7130E-15     17.6607E-15
            2381            2575     18.7130E-15     17.6607E-15
            2398            2575     18.7130E-15     17.6607E-15
            2399            2575     18.7130E-15     17.6607E-15
            2383            2576     16.2353E-15     16.6669E-15
            2382            2576     16.2353E-15     16.6669E-15
            2400            2576     16.2353E-15     16.6669E-15
            2399            2576     16.2353E-15     16.6669E-15
            2400            2577     12.0336E-15     14.8259E-15
            2401            2577     12.0336E-15     14.8259E-15
            2384            2577     12.0336E-15     14.8259E-15
            2383            2577     12.0336E-15     14.8259E-15
            2401            2578     10.2456E-15     10.3951E-15
            2402            2578     10.2456E-15     10.3951E-15
            2385            2578     10.2456E-15     10.3951E-15
            2384            2578     10.2456E-15     10.3951E-15
            2385            2579     11.4863E-15     10.2606E-15
            2386            2579     11.4863E-15     10.2606E-15
            2403            2579     11.4863E-15     10.2606E-15
            2402            2579     11.4863E-15     10.2606E-15
            2404            2580     11.9493E-15     11.5963E-15
            2387            2580     11.9493E-15     11.5963E-15
            2403            2580     11.9493E-15     11.5963E-15
            2386            2580     11.9493E-15     11.5963E-15
            2388            2581     13.7235E-15     13.6876E-15
            2389            2581     13.7235E-15     13.6876E-15
            2406            2581     13.7235E-15     13.6876E-15
            2405            2581     13.7235E-15     13.6876E-15
            2406            2582     12.7713E-15     13.3415E-15
            2407            2582     12.7713E-15     13.3415E-15
            2389            2582     12.7713E-15     13.3415E-15
            2390            2582     12.7713E-15     13.3415E-15
            2391            2583     15.6634E-15     16.5264E-15
            2390            2583     15.6634E-15     16.5264E-15
            2407            2583     15.6634E-15     16.5264E-15
            2408            2583     15.6634E-15     16.5264E-15
            2409            2584     15.5413E-15     14.2951E-15
            2391            2584     15.5413E-15     14.2951E-15
            2408            2584     15.5413E-15     14.2951E-15
            2392            2584     15.5413E-15     14.2951E-15
            2409            2585     12.0537E-15     10.7313E-15
            2392            2585     12.0537E-15     10.7313E-15
            2410            2585     12.0537E-15     10.7313E-15
            2393            2585     12.0537E-15     10.7313E-15
            2411            2586     10.6528E-15     10.5906E-15
            2410            2586     10.6528E-15     10.5906E-15
            2393            2586     10.6528E-15     10.5906E-15
            2394            2586     10.6528E-15     10.5906E-15
            2394            2587     9.60837E-15     8.25367E-15
            2411            2587     9.60837E-15     8.25367E-15
            2412            2587     9.60837E-15     8.25367E-15
            2395            2587     9.60837E-15     8.25367E-15
            2412            2588     9.38224E-15     8.64424E-15
            2395            2588     9.38224E-15     8.64424E-15
            2413            2588     9.38224E-15     8.64424E-15
            2396            2588     9.38224E-15     8.64424E-15
            2413            2589     10.8899E-15     11.1486E-15
            2396            2589     10.8899E-15     11.1486E-15
            2397            2589     10.8899E-15     11.1486E-15
            2414            2589     10.8899E-15     11.1486E-15
            2414            2590     15.5637E-15     16.2082E-15
            2397            2590     15.5637E-15     16.2082E-15
            2398            2590     15.5637E-15     16.2082E-15
            2415            2590     15.5637E-15     16.2082E-15
            2415            2591     17.9856E-15     18.8544E-15
            2416            2591     17.9856E-15     18.8544E-15
            2399            2591     17.9856E-15     18.8544E-15
            2398            2591     17.9856E-15     18.8544E-15
            2417            2592     14.6850E-15     15.3372E-15
            2399            2592     14.6850E-15     15.3372E-15
            2416            2592     14.6850E-15     15.3372E-15
            2400            2592     14.6850E-15     15.3372E-15
            2401            2593     12.4566E-15     12.3058E-15
            2417            2593     12.4566E-15     12.3058E-15
            2418            2593     12.4566E-15     12.3058E-15
            2400            2593     12.4566E-15     12.3058E-15
            2418            2594     11.4336E-15     9.50844E-15
            2401            2594     11.4336E-15     9.50844E-15
            2402            2594     11.4336E-15     9.50844E-15
            2419            2594     11.4336E-15     9.50844E-15
            2419            2595     10.6558E-15     10.0697E-15
            2420            2595     10.6558E-15     10.0697E-15
            2403            2595     10.6558E-15     10.0697E-15
            2402            2595     10.6558E-15     10.0697E-15
            2404            2596     11.2728E-15     10.5624E-15
            2421            2596     11.2728E-15     10.5624E-15
            2420            2596     11.2728E-15     10.5624E-15
            2403            2596     11.2728E-15     10.5624E-15
            2423            2597     13.0534E-15     13.1934E-15
            2422            2597     13.0534E-15     13.1934E-15
            2406            2597     13.0534E-15     13.1934E-15
            2405            2597     13.0534E-15     13.1934E-15
            2407            2598     11.2934E-15     11.6520E-15
            2406            2598     11.2934E-15     11.6520E-15
            2424            2598     11.2934E-15     11.6520E-15
            2423            2598     11.2934E-15     11.6520E-15
            2424            2599     10.7568E-15     11.3438E-15
            2425            2599     10.7568E-15     11.3438E-15
            2407            2599     10.7568E-15     11.3438E-15
            2408            2599     10.7568E-15     11.3438E-15
            2425            2600     10.4592E-15     10.1331E-15
            2426            2600     10.4592E-15     10.1331E-15
            2409            2600     10.4592E-15     10.1331E-15
            2408            2600     10.4592E-15     10.1331E-15
            2410            2601     8.78710E-15     8.09416E-15
            2426            2601     8.78710E-15     8.09416E-15
            2409            2601     8.78710E-15     8.09416E-15
            2427            2601     8.78710E-15     8.09416E-15
            2411            2602     9.11106E-15     9.43768E-15
            2410            2602     9.11106E-15     9.43768E-15
            2428            2602     9.11106E-15     9.43768E-15
            2427            2602     9.11106E-15     9.43768E-15
            2412            2603     10.1603E-15     10.9813E-15
            2429            2603     10.1603E-15     10.9813E-15
            2428            2603     10.1603E-15     10.9813E-15
            2411            2603     10.1603E-15     10.9813E-15
            2429            2604     10.3284E-15     10.3380E-15
            2413            2604     10.3284E-15     10.3380E-15
            2412            2604     10.3284E-15     10.3380E-15
            2430            2604     10.3284E-15     10.3380E-15
            2414            2605     9.79774E-15     8.24452E-15
            2413            2605     9.79774E-15     8.24452E-15
            2430            2605     9.79774E-15     8.24452E-15
            2431            2605     9.79774E-15     8.24452E-15
            2432            2606     8.80764E-15     8.00150E-15
            2431            2606     8.80764E-15     8.00150E-15
            2415            2606     8.80764E-15     8.00150E-15
            2414            2606     8.80764E-15     8.00150E-15
            2416            2607     9.34783E-15     11.1556E-15
            2415            2607     9.34783E-15     11.1556E-15
            2433            2607     9.34783E-15     11.1556E-15
            2432            2607     9.34783E-15     11.1556E-15
            2416            2608     9.81487E-15     11.1431E-15
            2433            2608     9.81487E-15     11.1431E-15
            2417            2608     9.81487E-15     11.1431E-15
            2434            2608     9.81487E-15     11.1431E-15
            2417            2609     11.8295E-15     11.9155E-15
            2435            2609     11.8295E-15     11.9155E-15
            2418            2609     11.8295E-15     11.9155E-15
            2434            2609     11.8295E-15     11.9155E-15
            2418            2610     10.8184E-15     10.8813E-15
            2436            2610     10.8184E-15     10.8813E-15
            2435            2610     10.8184E-15     10.8813E-15
            2419            2610     10.8184E-15     10.8813E-15
            2420            2611     11.5079E-15     10.7626E-15
            2436            2611     11.5079E-15     10.7626E-15
            2419            2611     11.5079E-15     10.7626E-15
            2437            2611     11.5079E-15     10.7626E-15
            2438            2612     13.6837E-15     14.1153E-15
            2421            2612     13.6837E-15     14.1153E-15
            2420            2612     13.6837E-15     14.1153E-15
            2437            2612     13.6837E-15     14.1153E-15
            2422            2613     15.0924E-15     15.1201E-15
            2439            2613     15.0924E-15     15.1201E-15
            2440            2613     15.0924E-15     15.1201E-15
            2423            2613     15.0924E-15     15.1201E-15
            2423            2614     14.8046E-15     14.3989E-15
            2440            2614     14.8046E-15     14.3989E-15
            2441            2614     14.8046E-15     14.3989E-15
            2424            2614     14.8046E-15     14.3989E-15
            2424            2615     10.6848E-15     9.95449E-15
            2442            2615     10.6848E-15     9.95449E-15
            2425            2615     10.6848E-15     9.95449E-15
            2441            2615     10.6848E-15     9.95449E-15
            2443            2616     9.38645E-15     9.10887E-15
            2426            2616     9.38645E-15     9.10887E-15
            2425            2616     9.38645E-15     9.10887E-15
            2442            2616     9.38645E-15     9.10887E-15
            2426            2617     8.01726E-15     8.32835E-15
            2443            2617     8.01726E-15     8.32835E-15
            2427            2617     8.01726E-15     8.32835E-15
            2444            2617     8.01726E-15     8.32835E-15
            2445            2618     8.83235E-15     11.2163E-15
            2428            2618     8.83235E-15     11.2163E-15
            2427            2618     8.83235E-15     11.2163E-15
            2444            2618     8.83235E-15     11.2163E-15
            2429            2619     11.3937E-15     13.5515E-15
            2445            2619     11.3937E-15     13.5515E-15
            2428            2619     11.3937E-15     13.5515E-15
            2446            2619     11.3937E-15     13.5515E-15
            2447            2620     10.8621E-15     11.4745E-15
            2429            2620     10.8621E-15     11.4745E-15
            2430            2620     10.8621E-15     11.4745E-15
            2446            2620     10.8621E-15     11.4745E-15
            2431            2621     9.70274E-15     11.2324E-15
            2430            2621     9.70274E-15     11.2324E-15
            2447            2621     9.70274E-15     11.2324E-15
            2448            2621     9.70274E-15     11.2324E-15
            2431            2622     9.25873E-15     12.2219E-15
            2432            2622     9.25873E-15     12.2219E-15
            2449            2622     9.25873E-15     12.2219E-15
            2448            2622     9.25873E-15     12.2219E-15
            2450            2623     10.7170E-15     13.8846E-15
            2433            2623     10.7170E-15     13.8846E-15
            2432            2623     10.7170E-15     13.8846E-15
            2449            2623     10.7170E-15     13.8846E-15
            2433            2624     15.6684E-15     19.1158E-15
            2450            2624     15.6684E-15     19.1158E-15
            2451            2624     15.6684E-15     19.1158E-15
            2434            2624     15.6684E-15     19.1158E-15
            2451            2625     18.0803E-15     22.0295E-15
            2452            2625     18.0803E-15     22.0295E-15
            2434            2625     18.0803E-15     22.0295E-15
            2435            2625     18.0803E-15     22.0295E-15
            2435            2626     11.5508E-15     12.5985E-15
            2436            2626     11.5508E-15     12.5985E-15
            2453            2626     11.5508E-15     12.5985E-15
            2452            2626     11.5508E-15     12.5985E-15
            2453            2627     10.7573E-15     7.60610E-15
            2454            2627     10.7573E-15     7.60610E-15
            2436            2627     10.7573E-15     7.60610E-15
            2437            2627     10.7573E-15     7.60610E-15
            2437            2628     10.3821E-15     11.3885E-15
            2455            2628     10.3821E-15     11.3885E-15
            2454            2628     10.3821E-15     11.3885E-15
            2438            2628     10.3821E-15     11.3885E-15
            2457            2629     136.093E-03     138.890E-03
            2473            2629     136.093E-03     138.890E-03
            2474            2629     136.093E-03     138.890E-03
            2456            2629     136.093E-03     138.890E-03
            2474            2630     128.874E-03     131.304E-03
            2475            2630     128.874E-03     131.304E-03
            2458            2630     128.874E-03     131.304E-03
            2457            2630     128.874E-03     131.304E-03
            2476            2631     120.004E-03     122.503E-03
            2475            2631     120.004E-03     122.503E-03
            2458            2631     120.004E-03     122.503E-03
            2459            2631     120.004E-03     122.503E-03
            2459            2632     111.671E-03     114.370E-03
            2460            2632     111.671E-03     114.370E-03
            2477            2632     111.671E-03     114.370E-03
            2476            2632     111.671E-03     114.370E-03
            2477            2633     103.388E-03     105.865E-03
            2461            2633     103.388E-03     105.865E-03
            2460            2633     103.388E-03     105.865E-03
            2478            2633     103.388E-03     105.865E-03
            2479            2634     94.9727E-03     97.6631E-03
            2478            2634     94.9727E-03     97.6631E-03
            2461            2634     94.9727E-03     97.6631E-03
            2462            2634     94.9727E-03     97.6631E-03
            2480            2635     86.7688E-03     89.3117E-03
            2462            2635     86.7688E-03     89.3117E-03
            2479            2635     86.7688E-03     89.3117E-03
            2463            2635     86.7688E-03     89.3117E-03
            2464            2636     78.4950E-03     81.1613E-03
            2463            2636     78.4950E-03     81.1613E-03
            2481            2636     78.4950E-03     81.1613E-03
            2480            2636     78.4950E-03     81.1613E-03
            2465            2637     70.3879E-03     72.9956E-03
            2464            2637     70.3879E-03     72.9956E-03
            2481            2637     70.3879E-03     72.9956E-03
            2482            2637     70.3879E-03     72.9956E-03
            2482            2638     62.3300E-03     65.0026E-03
            2466            2638     62.3300E-03     65.0026E-03
            2465            2638     62.3300E-03     65.0026E-03
            2483            2638     62.3300E-03     65.0026E-03
            2484            2639     54.4668E-03     57.1319E-03
            2466            2639     54.4668E-03     57.1319E-03
            2483            2639     54.4668E-03     57.1319E-03
            2467            2639     54.4668E-03     57.1319E-03
            2467            2640     46.8320E-03     49.5288E-03
            2484            2640     46.8320E-03     49.5288E-03
            2485            2640     46.8320E-03     49.5288E-03
            2468            2640     46.8320E-03     49.5288E-03
            2485            2641     39.6242E-03     42.3037E-03
            2468            2641     39.6242E-03     42.3037E-03
            2486            2641     39.6242E-03     42.3037E-03
            2469            2641     39.6242E-03     42.3037E-03
            2487            2642     33.1701E-03     35.7191E-03
            2469            2642     33.1701E-03     35.7191E-03
            2486            2642     33.1701E-03     35.7191E-03
            2470            2642     33.1701E-03     35.7191E-03
            2487            2643     28.0526E-03     30.1768E-03
            2488            2643     28.0526E-03     30.1768E-03
            2470            2643     28.0526E-03     30.1768E-03
            2471            2643     28.0526E-03     30.1768E-03
            2488            2644     25.0359E-03     26.1804E-03
            2472            2644     25.0359E-03     26.1804E-03
            2489            2644     25.0359E-03     26.1804E-03
            2471            2644     25.0359E-03     26.1804E-03
            2474            2645     127.291E-03     126.884E-03
            2491            2645     127.291E-03     126.884E-03
            2490            2645     127.291E-03     126.884E-03
            2473            2645     127.291E-03     126.884E-03
            2491            2646     110.599E-03     107.283E-03
            2475            2646     110.599E-03     107.283E-03
            2474            2646     110.599E-03     107.283E-03
            2492            2646     110.599E-03     107.283E-03
            2476            2647     98.1196E-03     94.1937E-03
            2493            2647     98.1196E-03     94.1937E-03
            2492            2647     98.1196E-03     94.1937E-03
            2475            2647     98.1196E-03     94.1937E-03
            2476            2648     90.0054E-03     86.2009E-03
            2494            2648     90.0054E-03     86.2009E-03
            2493            2648     90.0054E-03     86.2009E-03
            2477            2648     90.0054E-03     86.2009E-03
            2494            2649     83.0813E-03     79.1337E-03
            2477            2649     83.0813E-03     79.1337E-03
            2478            2649     83.0813E-03     79.1337E-03
            2495            2649     83.0813E-03     79.1337E-03
            2496            2650     76.6827E-03     72.9300E-03
            2478            2650     76.6827E-03     72.9300E-03
            2479            2650     76.6827E-03     72.9300E-03
            2495            2650     76.6827E-03     72.9300E-03
            2479            2651     70.6082E-03     66.7714E-03
            2480            2651     70.6082E-03     66.7714E-03
            2497            2651     70.6082E-03     66.7714E-03
            2496            2651     70.6082E-03     66.7714E-03
            2480            2652     64.5266E-03     60.8004E-03
            2498            2652     64.5266E-03     60.8004E-03
            2497            2652     64.5266E-03     60.8004E-03
            2481            2652     64.5266E-03     60.8004E-03
            2481            2653     58.5867E-03     54.8263E-03
            2499            2653     58.5867E-03     54.8263E-03
            2482            2653     58.5867E-03     54.8263E-03
            2498            2653     58.5867E-03     54.8263E-03
            2482            2654     52.6885E-03     48.9958E-03
            2499            2654     52.6885E-03     48.9958E-03
            2500            2654     52.6885E-03     48.9958E-03
            2483            2654     52.6885E-03     48.9958E-03
            2484            2655     46.9927E-03     43.2987E-03
            2501            2655     46.9927E-03     43.2987E-03
            2483            2655     46.9927E-03     43.2987E-03
            2500            2655     46.9927E-03     43.2987E-03
            2484            2656     41.4901E-03     37.8430E-03
            2501            2656     41.4901E-03     37.8430E-03
            2502            2656     41.4901E-03     37.8430E-03
            2485            2656     41.4901E-03     37.8430E-03
            2486            2657     36.3587E-03     32.8082E-03
            2503            2657     36.3587E-03     32.8082E-03
            2485            2657     36.3587E-03     32.8082E-03
            2502            2657     36.3587E-03     32.8082E-03
            2504            2658     31.6636E-03     28.3463E-03
            2486            2658     31.6636E-03     28.3463E-03
            2503            2658     31.6636E-03     28.3463E-03
            2487            2658     31.6636E-03     28.3463E-03
            2488            2659     27.5188E-03     25.0513E-03
            2505            2659     27.5188E-03     25.0513E-03
            2487            2659     27.5188E-03     25.0513E-03
            2504            2659     27.5188E-03     25.0513E-03
            2488            2660     23.7529E-03     23.3091E-03
            2489            2660     23.7529E-03     23.3091E-03
            2505            2660     23.7529E-03     23.3091E-03
            2506            2660     23.7529E-03     23.3091E-03
            2490            2661     115.769E-03     123.041E-03
            2508            2661     115.769E-03     123.041E-03
            2491            2661     115.769E-03     123.041E-03
            2507            2661     115.769E-03     123.041E-03
            2509            2662     82.1355E-03     90.7588E-03
            2491            2662     82.1355E-03     90.7588E-03
            2492            2662     82.1355E-03     90.7588E-03
            2508            2662     82.1355E-03     90.7588E-03
            2509            2663     66.9440E-03     75.4267E-03
            2493            2663     66.9440E-03     75.4267E-03
            2510            2663     66.9440E-03     75.4267E-03
            2492            2663     66.9440E-03     75.4267E-03
            2493            2664     59.1996E-03     67.5458E-03
            2494            2664     59.1996E-03     67.5458E-03
            2510            2664     59.1996E-03     67.5458E-03
            2511            2664     59.1996E-03     67.5458E-03
            2512            2665     53.7240E-03     62.0385E-03
            2495            2665     53.7240E-03     62.0385E-03
            2494            2665     53.7240E-03     62.0385E-03
            2511            2665     53.7240E-03     62.0385E-03
            2496            2666     49.4915E-03     57.6985E-03
            2513            2666     49.4915E-03     57.6985E-03
            2495            2666     49.4915E-03     57.6985E-03
            2512            2666     49.4915E-03     57.6985E-03
            2513            2667     45.4747E-03     53.5693E-03
            2497            2667     45.4747E-03     53.5693E-03
            2514            2667     45.4747E-03     53.5693E-03
            2496            2667     45.4747E-03     53.5693E-03
            2497            2668     41.6203E-03     49.5861E-03
            2515            2668     41.6203E-03     49.5861E-03
            2498            2668     41.6203E-03     49.5861E-03
            2514            2668     41.6203E-03     49.5861E-03
            2498            2669     37.8345E-03     45.6049E-03
            2499            2669     37.8345E-03     45.6049E-03
            2516            2669     37.8345E-03     45.6049E-03
            2515            2669     37.8345E-03     45.6049E-03
            2499            2670     34.1755E-03     41.6983E-03
            2517            2670     34.1755E-03     41.6983E-03
            2516            2670     34.1755E-03     41.6983E-03
            2500            2670     34.1755E-03     41.6983E-03
            2501            2671     30.7324E-03     37.8685E-03
            2517            2671     30.7324E-03     37.8685E-03
            2518            2671     30.7324E-03     37.8685E-03
            2500            2671     30.7324E-03     37.8685E-03
            2501            2672     27.5907E-03     34.1827E-03
            2502            2672     27.5907E-03     34.1827E-03
            2519            2672     27.5907E-03     34.1827E-03
            2518            2672     27.5907E-03     34.1827E-03
            2520            2673     24.9120E-03     30.6616E-03
            2502            2673     24.9120E-03     30.6616E-03
            2503            2673     24.9120E-03     30.6616E-03
            2519            2673     24.9120E-03     30.6616E-03
            2503            2674     22.7357E-03     27.4640E-03
            2520            2674     22.7357E-03     27.4640E-03
            2521            2674     22.7357E-03     27.4640E-03
            2504            2674     22.7357E-03     27.4640E-03
            2505            2675     21.1494E-03     24.8553E-03
            2504            2675     21.1494E-03     24.8553E-03
            2521            2675     21.1494E-03     24.8553E-03
            2522            2675     21.1494E-03     24.8553E-03
            2506            2676     20.4243E-03     22.9933E-03
            2505            2676     20.4243E-03     22.9933E-03
            2523            2676     20.4243E-03     22.9933E-03
            2522            2676     20.4243E-03     22.9933E-03
            2524            2677     105.894E-03     106.544E-03
            2525            2677     105.894E-03     106.544E-03
            2508            2677     105.894E-03     106.544E-03
            2507            2677     105.894E-03     106.544E-03
            2509            2678     82.9857E-03     86.7706E-03
            2526            2678     82.9857E-03     86.7706E-03
            2525            2678     82.9857E-03     86.7706E-03
            2508            2678     82.9857E-03     86.7706E-03
            2509            2679     68.8733E-03     74.4041E-03
            2527            2679     68.8733E-03     74.4041E-03
            2510            2679     68.8733E-03     74.4041E-03
            2526            2679     68.8733E-03     74.4041E-03
            2527            2680     61.9726E-03     67.7430E-03
            2510            2680     61.9726E-03     67.7430E-03
            2528            2680     61.9726E-03     67.7430E-03
            2511            2680     61.9726E-03     67.7430E-03
            2528            2681     57.1464E-03     62.6874E-03
            2512            2681     57.1464E-03     62.6874E-03
            2529            2681     57.1464E-03     62.6874E-03
            2511            2681     57.1464E-03     62.6874E-03
            2512            2682     52.7689E-03     58.1697E-03
            2529            2682     52.7689E-03     58.1697E-03
            2513            2682     52.7689E-03     58.1697E-03
            2530            2682     52.7689E-03     58.1697E-03
            2530            2683     48.6802E-03     53.9379E-03
            2513            2683     48.6802E-03     53.9379E-03
            2514            2683     48.6802E-03     53.9379E-03
            2531            2683     48.6802E-03     53.9379E-03
            2532            2684     44.6922E-03     49.8203E-03
            2514            2684     44.6922E-03     49.8203E-03
            2531            2684     44.6922E-03     49.8203E-03
            2515            2684     44.6922E-03     49.8203E-03
            2515            2685     40.8537E-03     45.8329E-03
            2516            2685     40.8537E-03     45.8329E-03
            2533            2685     40.8537E-03     45.8329E-03
            2532            2685     40.8537E-03     45.8329E-03
            2516            2686     37.1941E-03     41.9670E-03
            2517            2686     37.1941E-03     41.9670E-03
            2534            2686     37.1941E-03     41.9670E-03
            2533            2686     37.1941E-03     41.9670E-03
            2518            2687     33.7706E-03     38.2714E-03
            2517            2687     33.7706E-03     38.2714E-03
            2534            2687     33.7706E-03     38.2714E-03
            2535            2687     33.7706E-03     38.2714E-03
            2518            2688     30.6864E-03     34.7978E-03
            2536            2688     30.6864E-03     34.7978E-03
            2519            2688     30.6864E-03     34.7978E-03
            2535            2688     30.6864E-03     34.7978E-03
            2536            2689     28.0812E-03     31.5547E-03
            2520            2689     28.0812E-03     31.5547E-03
            2519            2689     28.0812E-03     31.5547E-03
            2537            2689     28.0812E-03     31.5547E-03
            2520            2690     26.0077E-03     28.6334E-03
            2537            2690     26.0077E-03     28.6334E-03
            2521            2690     26.0077E-03     28.6334E-03
            2538            2690     26.0077E-03     28.6334E-03
            2539            2691     24.8189E-03     26.0904E-03
            2521            2691     24.8189E-03     26.0904E-03
            2538            2691     24.8189E-03     26.0904E-03
            2522            2691     24.8189E-03     26.0904E-03
            2539            2692     24.9343E-03     23.4842E-03
            2540            2692     24.9343E-03     23.4842E-03
            2523            2692     24.9343E-03     23.4842E-03
            2522            2692     24.9343E-03     23.4842E-03
            2524            2693     87.5838E-03     89.6383E-03
            2542            2693     87.5838E-03     89.6383E-03
            2541            2693     87.5838E-03     89.6383E-03
            2525            2693     87.5838E-03     89.6383E-03
            2543            2694     75.5481E-03     77.7353E-03
            2526            2694     75.5481E-03     77.7353E-03
            2542            2694     75.5481E-03     77.7353E-03
            2525            2694     75.5481E-03     77.7353E-03
            2544            2695     69.2028E-03     72.2119E-03
            2543            2695     69.2028E-03     72.2119E-03
            2526            2695     69.2028E-03     72.2119E-03
            2527            2695     69.2028E-03     72.2119E-03
            2528            2696     64.4976E-03     67.5654E-03
            2545            2696     64.4976E-03     67.5654E-03
            2544            2696     64.4976E-03     67.5654E-03
            2527            2696     64.4976E-03     67.5654E-03
            2529            2697     60.3107E-03     63.1103E-03
            2546            2697     60.3107E-03     63.1103E-03
            2545            2697     60.3107E-03     63.1103E-03
            2528            2697     60.3107E-03     63.1103E-03
            2529            2698     55.9024E-03     58.5273E-03
            2547            2698     55.9024E-03     58.5273E-03
            2530            2698     55.9024E-03     58.5273E-03
            2546            2698     55.9024E-03     58.5273E-03
            2530            2699     51.6385E-03     54.1597E-03
            2547            2699     51.6385E-03     54.1597E-03
            2548            2699     51.6385E-03     54.1597E-03
            2531            2699     51.6385E-03     54.1597E-03
            2548            2700     47.5401E-03     49.9619E-03
            2549            2700     47.5401E-03     49.9619E-03
            2532            2700     47.5401E-03     49.9619E-03
            2531            2700     47.5401E-03     49.9619E-03
            2532            2701     43.6571E-03     45.9847E-03
            2550            2701     43.6571E-03     45.9847E-03
            2549            2701     43.6571E-03     45.9847E-03
            2533            2701     43.6571E-03     45.9847E-03
            2551            2702     40.0103E-03     42.2280E-03
            2550            2702     40.0103E-03     42.2280E-03
            2534            2702     40.0103E-03     42.2280E-03
            2533            2702     40.0103E-03     42.2280E-03
            2535            2703     36.6476E-03     38.7231E-03
            2534            2703     36.6476E-03     38.7231E-03
            2552            2703     36.6476E-03     38.7231E-03
            2551            2703     36.6476E-03     38.7231E-03
            2552            2704     33.6162E-03     35.5026E-03
            2553            2704     33.6162E-03     35.5026E-03
            2535            2704     33.6162E-03     35.5026E-03
            2536            2704     33.6162E-03     35.5026E-03
            2554            2705     31.0165E-03     32.6582E-03
            2553            2705     31.0165E-03     32.6582E-03
            2537            2705     31.0165E-03     32.6582E-03
            2536            2705     31.0165E-03     32.6582E-03
            2538            2706     29.1933E-03     30.0246E-03
            2554            2706     29.1933E-03     30.0246E-03
            2555            2706     29.1933E-03     30.0246E-03
            2537            2706     29.1933E-03     30.0246E-03
            2555            2707     28.2972E-03     27.2999E-03
            2538            2707     28.2972E-03     27.2999E-03
            2556            2707     28.2972E-03     27.2999E-03
            2539            2707     28.2972E-03     27.2999E-03
            2539            2708     27.9598E-03     25.2358E-03
            2556            2708     27.9598E-03     25.2358E-03
            2540            2708     27.9598E-03     25.2358E-03
            2557            2708     27.9598E-03     25.2358E-03
            2542            2709     70.3999E-03     70.4014E-03
            2541            2709     70.3999E-03     70.4014E-03
            2559            2709     70.3999E-03     70.4014E-03
            2558            2709     70.3999E-03     70.4014E-03
            2560            2710     64.3058E-03     66.1447E-03
            2559            2710     64.3058E-03     66.1447E-03
            2542            2710     64.3058E-03     66.1447E-03
            2543            2710     64.3058E-03     66.1447E-03
            2543            2711     66.5446E-03     67.5125E-03
            2560            2711     66.5446E-03     67.5125E-03
            2544            2711     66.5446E-03     67.5125E-03
            2561            2711     66.5446E-03     67.5125E-03
            2544            2712     65.8172E-03     65.9016E-03
            2562            2712     65.8172E-03     65.9016E-03
            2545            2712     65.8172E-03     65.9016E-03
            2561            2712     65.8172E-03     65.9016E-03
            2545            2713     62.1706E-03     62.1398E-03
            2563            2713     62.1706E-03     62.1398E-03
            2562            2713     62.1706E-03     62.1398E-03
            2546            2713     62.1706E-03     62.1398E-03
            2563            2714     58.1694E-03     58.0144E-03
            2546            2714     58.1694E-03     58.0144E-03
            2547            2714     58.1694E-03     58.0144E-03
            2564            2714     58.1694E-03     58.0144E-03
            2548            2715     53.9454E-03     53.7611E-03
            2547            2715     53.9454E-03     53.7611E-03
            2565            2715     53.9454E-03     53.7611E-03
            2564            2715     53.9454E-03     53.7611E-03
            2548            2716     49.9362E-03     49.7434E-03
            2566            2716     49.9362E-03     49.7434E-03
            2549            2716     49.9362E-03     49.7434E-03
            2565            2716     49.9362E-03     49.7434E-03
            2549            2717     46.1420E-03     45.9506E-03
            2550            2717     46.1420E-03     45.9506E-03
            2567            2717     46.1420E-03     45.9506E-03
            2566            2717     46.1420E-03     45.9506E-03
            2550            2718     42.6170E-03     42.4304E-03
            2568            2718     42.6170E-03     42.4304E-03
            2567            2718     42.6170E-03     42.4304E-03
            2551            2718     42.6170E-03     42.4304E-03
            2568            2719     39.3622E-03     39.2047E-03
            2551            2719     39.3622E-03     39.2047E-03
            2552            2719     39.3622E-03     39.2047E-03
            2569            2719     39.3622E-03     39.2047E-03
            2552            2720     36.4281E-03     36.3139E-03
            2569            2720     36.4281E-03     36.3139E-03
            2553            2720     36.4281E-03     36.3139E-03
            2570            2720     36.4281E-03     36.3139E-03
            2553            2721     33.8510E-03     33.8377E-03
            2554            2721     33.8510E-03     33.8377E-03
            2571            2721     33.8510E-03     33.8377E-03
            2570            2721     33.8510E-03     33.8377E-03
            2571            2722     31.8660E-03     31.7930E-03
            2554            2722     31.8660E-03     31.7930E-03
            2555            2722     31.8660E-03     31.7930E-03
            2572            2722     31.8660E-03     31.7930E-03
            2555            2723     30.8627E-03     29.7758E-03
            2556            2723     30.8627E-03     29.7758E-03
            2573            2723     30.8627E-03     29.7758E-03
            2572            2723     30.8627E-03     29.7758E-03
            2556            2724     30.5168E-03     27.7590E-03
            2573            2724     30.5168E-03     27.7590E-03
            2557            2724     30.5168E-03     27.7590E-03
            2574            2724     30.5168E-03     27.7590E-03
            2558            2725     53.1578E-03     52.4239E-03
            2576            2725     53.1578E-03     52.4239E-03
            2559            2725     53.1578E-03     52.4239E-03
            2575            2725     53.1578E-03     52.4239E-03
            2560            2726     55.1807E-03     54.1378E-03
            2559            2726     55.1807E-03     54.1378E-03
            2577            2726     55.1807E-03     54.1378E-03
            2576            2726     55.1807E-03     54.1378E-03
            2577            2727     63.4024E-03     60.9196E-03
            2560            2727     63.4024E-03     60.9196E-03
            2578            2727     63.4024E-03     60.9196E-03
            2561            2727     63.4024E-03     60.9196E-03
            2578            2728     64.4526E-03     61.4792E-03
            2579            2728     64.4526E-03     61.4792E-03
            2561            2728     64.4526E-03     61.4792E-03
            2562            2728     64.4526E-03     61.4792E-03
            2563            2729     62.4469E-03     59.3732E-03
            2579            2729     62.4469E-03     59.3732E-03
            2562            2729     62.4469E-03     59.3732E-03
            2580            2729     62.4469E-03     59.3732E-03
            2563            2730     59.0474E-03     56.0868E-03
            2581            2730     59.0474E-03     56.0868E-03
            2580            2730     59.0474E-03     56.0868E-03
            2564            2730     59.0474E-03     56.0868E-03
            2565            2731     55.4350E-03     52.5770E-03
            2581            2731     55.4350E-03     52.5770E-03
            2564            2731     55.4350E-03     52.5770E-03
            2582            2731     55.4350E-03     52.5770E-03
            2582            2732     51.7936E-03     49.0684E-03
            2583            2732     51.7936E-03     49.0684E-03
            2565            2732     51.7936E-03     49.0684E-03
            2566            2732     51.7936E-03     49.0684E-03
            2583            2733     48.3220E-03     45.7352E-03
            2584            2733     48.3220E-03     45.7352E-03
            2566            2733     48.3220E-03     45.7352E-03
            2567            2733     48.3220E-03     45.7352E-03
            2584            2734     45.0402E-03     42.6235E-03
            2568            2734     45.0402E-03     42.6235E-03
            2585            2734     45.0402E-03     42.6235E-03
            2567            2734     45.0402E-03     42.6235E-03
            2586            2735     41.9869E-03     39.7709E-03
            2569            2735     41.9869E-03     39.7709E-03
            2568            2735     41.9869E-03     39.7709E-03
            2585            2735     41.9869E-03     39.7709E-03
            2587            2736     39.1830E-03     37.2643E-03
            2570            2736     39.1830E-03     37.2643E-03
            2586            2736     39.1830E-03     37.2643E-03
            2569            2736     39.1830E-03     37.2643E-03
            2588            2737     36.6900E-03     35.1314E-03
            2587            2737     36.6900E-03     35.1314E-03
            2570            2737     36.6900E-03     35.1314E-03
            2571            2737     36.6900E-03     35.1314E-03
            2589            2738     34.3753E-03     33.6631E-03
            2572            2738     34.3753E-03     33.6631E-03
            2588            2738     34.3753E-03     33.6631E-03
            2571            2738     34.3753E-03     33.6631E-03
            2590            2739     32.6277E-03     32.9966E-03
            2589            2739     32.6277E-03     32.9966E-03
            2572            2739     32.6277E-03     32.9966E-03
            2573            2739     32.6277E-03     32.9966E-03
            2573            2740     32.5592E-03     31.8531E-03
            2574            2740     32.5592E-03     31.8531E-03
            2591            2740     32.5592E-03     31.8531E-03
            2590            2740     32.5592E-03     31.8531E-03
            2575            2741     41.3334E-03     40.0188E-03
            2576            2741     41.3334E-03     40.0188E-03
            2592            2741     41.3334E-03     40.0188E-03
            2593            2741     41.3334E-03     40.0188E-03
            2576            2742     49.1337E-03     42.5748E-03
            2594            2742     49.1337E-03     42.5748E-03
            2577            2742     49.1337E-03     42.5748E-03
            2593            2742     49.1337E-03     42.5748E-03
            2577            2743     58.5426E-03     51.6087E-03
            2594            2743     58.5426E-03     51.6087E-03
            2578            2743     58.5426E-03     51.6087E-03
            2595            2743     58.5426E-03     51.6087E-03
            2578            2744     61.1053E-03     54.6768E-03
            2579            2744     61.1053E-03     54.6768E-03
            2595            2744     61.1053E-03     54.6768E-03
            2596            2744     61.1053E-03     54.6768E-03
            2579            2745     60.8335E-03     54.7675E-03
            2580            2745     60.8335E-03     54.7675E-03
            2597            2745     60.8335E-03     54.7675E-03
            2596            2745     60.8335E-03     54.7675E-03
            2580            2746     58.9034E-03     53.1445E-03
            2598            2746     58.9034E-03     53.1445E-03
            2581            2746     58.9034E-03     53.1445E-03
            2597            2746     58.9034E-03     53.1445E-03
            2598            2747     56.2531E-03     50.8354E-03
            2581            2747     56.2531E-03     50.8354E-03
            2582            2747     56.2531E-03     50.8354E-03
            2599            2747     56.2531E-03     50.8354E-03
            2583            2748     53.3400E-03     48.2051E-03
            2582            2748     53.3400E-03     48.2051E-03
            2600            2748     53.3400E-03     48.2051E-03
            2599            2748     53.3400E-03     48.2051E-03
            2600            2749     50.3478E-03     45.5424E-03
            2584            2749     50.3478E-03     45.5424E-03
            2583            2749     50.3478E-03     45.5424E-03
            2601            2749     50.3478E-03     45.5424E-03
            2585            2750     47.4098E-03     42.9593E-03
            2584            2750     47.4098E-03     42.9593E-03
            2602            2750     47.4098E-03     42.9593E-03
            2601            2750     47.4098E-03     42.9593E-03
            2603            2751     44.6073E-03     40.5658E-03
            2586            2751     44.6073E-03     40.5658E-03
            2585            2751     44.6073E-03     40.5658E-03
            2602            2751     44.6073E-03     40.5658E-03
            2587            2752     41.9682E-03     38.4302E-03
            2586            2752     41.9682E-03     38.4302E-03
            2603            2752     41.9682E-03     38.4302E-03
            2604            2752     41.9682E-03     38.4302E-03
            2604            2753     39.5630E-03     36.6698E-03
            2587            2753     39.5630E-03     36.6698E-03
            2605            2753     39.5630E-03     36.6698E-03
            2588            2753     39.5630E-03     36.6698E-03
            2589            2754     37.3221E-03     35.4069E-03
            2606            2754     37.3221E-03     35.4069E-03
            2588            2754     37.3221E-03     35.4069E-03
            2605            2754     37.3221E-03     35.4069E-03
            2606            2755     35.0868E-03     35.1640E-03
            2590            2755     35.0868E-03     35.1640E-03
            2589            2755     35.0868E-03     35.1640E-03
            2607            2755     35.0868E-03     35.1640E-03
            2608            2756     33.2310E-03     36.2374E-03
            2591            2756     33.2310E-03     36.2374E-03
            2590            2756     33.2310E-03     36.2374E-03
            2607            2756     33.2310E-03     36.2374E-03
            2610            2757     22.9217E-03     22.1652E-03
            2609            2757     22.9217E-03     22.1652E-03
            2592            2757     22.9217E-03     22.1652E-03
            2593            2757     22.9217E-03     22.1652E-03
            2593            2758     27.2658E-03     22.3016E-03
            2594            2758     27.2658E-03     22.3016E-03
            2611            2758     27.2658E-03     22.3016E-03
            2610            2758     27.2658E-03     22.3016E-03
            2612            2759     31.0966E-03     26.6652E-03
            2594            2759     31.0966E-03     26.6652E-03
            2595            2759     31.0966E-03     26.6652E-03
            2611            2759     31.0966E-03     26.6652E-03
            2595            2760     32.8927E-03     28.8979E-03
            2613            2760     32.8927E-03     28.8979E-03
            2596            2760     32.8927E-03     28.8979E-03
            2612            2760     32.8927E-03     28.8979E-03
            2613            2761     32.9235E-03     29.2638E-03
            2614            2761     32.9235E-03     29.2638E-03
            2596            2761     32.9235E-03     29.2638E-03
            2597            2761     32.9235E-03     29.2638E-03
            2614            2762     32.2403E-03     28.8209E-03
            2597            2762     32.2403E-03     28.8209E-03
            2598            2762     32.2403E-03     28.8209E-03
            2615            2762     32.2403E-03     28.8209E-03
            2598            2763     31.0083E-03     27.8017E-03
            2616            2763     31.0083E-03     27.8017E-03
            2599            2763     31.0083E-03     27.8017E-03
            2615            2763     31.0083E-03     27.8017E-03
            2599            2764     29.5674E-03     26.5553E-03
            2600            2764     29.5674E-03     26.5553E-03
            2616            2764     29.5674E-03     26.5553E-03
            2617            2764     29.5674E-03     26.5553E-03
            2601            2765     28.0237E-03     25.2354E-03
            2618            2765     28.0237E-03     25.2354E-03
            2600            2765     28.0237E-03     25.2354E-03
            2617            2765     28.0237E-03     25.2354E-03
            2618            2766     26.4729E-03     23.9016E-03
            2602            2766     26.4729E-03     23.9016E-03
            2601            2766     26.4729E-03     23.9016E-03
            2619            2766     26.4729E-03     23.9016E-03
            2603            2767     24.9677E-03     22.6774E-03
            2602            2767     24.9677E-03     22.6774E-03
            2620            2767     24.9677E-03     22.6774E-03
            2619            2767     24.9677E-03     22.6774E-03
            2621            2768     23.5433E-03     21.5389E-03
            2603            2768     23.5433E-03     21.5389E-03
            2620            2768     23.5433E-03     21.5389E-03
            2604            2768     23.5433E-03     21.5389E-03
            2622            2769     22.2419E-03     20.6417E-03
            2604            2769     22.2419E-03     20.6417E-03
            2605            2769     22.2419E-03     20.6417E-03
            2621            2769     22.2419E-03     20.6417E-03
            2622            2770     21.0558E-03     19.8707E-03
            2605            2770     21.0558E-03     19.8707E-03
            2623            2770     21.0558E-03     19.8707E-03
            2606            2770     21.0558E-03     19.8707E-03
            2623            2771     19.9612E-03     19.6481E-03
            2624            2771     19.9612E-03     19.6481E-03
            2607            2771     19.9612E-03     19.6481E-03
            2606            2771     19.9612E-03     19.6481E-03
            2625            2772     18.2310E-03     20.3209E-03
            2608            2772     18.2310E-03     20.3209E-03
            2607            2772     18.2310E-03     20.3209E-03
            2624            2772     18.2310E-03     20.3209E-03
            2643            2773     13.1751E-15     7.28585E-15
            2626            2773     13.1751E-15     7.28585E-15
            2644            2773     13.1751E-15     7.28585E-15
            2627            2773     13.1751E-15     7.28585E-15
            2627            2774     7.39470E-15     10.1376E-15
            2644            2774     7.39470E-15     10.1376E-15
            2645            2774     7.39470E-15     10.1376E-15
            2628            2774     7.39470E-15     10.1376E-15
            2628            2775     10.8857E-15     13.1620E-15
            2646            2775     10.8857E-15     13.1620E-15
            2629            2775     10.8857E-15     13.1620E-15
            2645            2775     10.8857E-15     13.1620E-15
            2629            2776     10.9876E-15     12.2024E-15
            2646            2776     10.9876E-15     12.2024E-15
            2647            2776     10.9876E-15     12.2024E-15
            2630            2776     10.9876E-15     12.2024E-15
            2630            2777     8.09482E-15     9.35787E-15
            2647            2777     8.09482E-15     9.35787E-15
            2631            2777     8.09482E-15     9.35787E-15
            2648            2777     8.09482E-15     9.35787E-15
            2631            2778     9.24787E-15     10.1967E-15
            2648            2778     9.24787E-15     10.1967E-15
            2632            2778     9.24787E-15     10.1967E-15
            2649            2778     9.24787E-15     10.1967E-15
            2633            2779     8.91645E-15     9.29349E-15
            2650            2779     8.91645E-15     9.29349E-15
            2632            2779     8.91645E-15     9.29349E-15
            2649            2779     8.91645E-15     9.29349E-15
            2651            2780     6.07359E-15     6.49174E-15
            2633            2780     6.07359E-15     6.49174E-15
            2634            2780     6.07359E-15     6.49174E-15
            2650            2780     6.07359E-15     6.49174E-15
            2635            2781     3.91177E-15     5.87015E-15
            2651            2781     3.91177E-15     5.87015E-15
            2634            2781     3.91177E-15     5.87015E-15
            2652            2781     3.91177E-15     5.87015E-15
            2635            2782     5.97573E-15     8.79708E-15
            2652            2782     5.97573E-15     8.79708E-15
            2636            2782     5.97573E-15     8.79708E-15
            2653            2782     5.97573E-15     8.79708E-15
            2637            2783     13.7085E-15     15.6266E-15
            2653            2783     13.7085E-15     15.6266E-15
            2636            2783     13.7085E-15     15.6266E-15
            2654            2783     13.7085E-15     15.6266E-15
            2654            2784     14.4400E-15     14.7937E-15
            2637            2784     14.4400E-15     14.7937E-15
            2655            2784     14.4400E-15     14.7937E-15
            2638            2784     14.4400E-15     14.7937E-15
            2638            2785     8.28444E-15     8.14221E-15
            2639            2785     8.28444E-15     8.14221E-15
            2655            2785     8.28444E-15     8.14221E-15
            2656            2785     8.28444E-15     8.14221E-15
            2639            2786     6.86425E-15     6.71044E-15
            2656            2786     6.86425E-15     6.71044E-15
            2640            2786     6.86425E-15     6.71044E-15
            2657            2786     6.86425E-15     6.71044E-15
            2640            2787     12.1016E-15     11.8153E-15
            2641            2787     12.1016E-15     11.8153E-15
            2657            2787     12.1016E-15     11.8153E-15
            2658            2787     12.1016E-15     11.8153E-15
            2642            2788     18.6350E-15     18.6970E-15
            2659            2788     18.6350E-15     18.6970E-15
            2641            2788     18.6350E-15     18.6970E-15
            2658            2788     18.6350E-15     18.6970E-15
            2660            2789     10.3775E-15     11.1745E-15
            2644            2789     10.3775E-15     11.1745E-15
            2661            2789     10.3775E-15     11.1745E-15
            2643            2789     10.3775E-15     11.1745E-15
            2661            2790     10.2098E-15     11.0576E-15
            2645            2790     10.2098E-15     11.0576E-15
            2644            2790     10.2098E-15     11.0576E-15
            2662            2790     10.2098E-15     11.0576E-15
            2662            2791     10.0935E-15     12.7549E-15
            2663            2791     10.0935E-15     12.7549E-15
            2645            2791     10.0935E-15     12.7549E-15
            2646            2791     10.0935E-15     12.7549E-15
            2663            2792     8.71951E-15     11.7729E-15
            2664            2792     8.71951E-15     11.7729E-15
            2647            2792     8.71951E-15     11.7729E-15
            2646            2792     8.71951E-15     11.7729E-15
            2664            2793     7.66643E-15     8.80277E-15
            2648            2793     7.66643E-15     8.80277E-15
            2665            2793     7.66643E-15     8.80277E-15
            2647            2793     7.66643E-15     8.80277E-15
            2648            2794     7.35951E-15     8.84670E-15
            2649            2794     7.35951E-15     8.84670E-15
            2665            2794     7.35951E-15     8.84670E-15
            2666            2794     7.35951E-15     8.84670E-15
            2649            2795     7.75226E-15     9.69520E-15
            2666            2795     7.75226E-15     9.69520E-15
            2650            2795     7.75226E-15     9.69520E-15
            2667            2795     7.75226E-15     9.69520E-15
            2650            2796     5.02363E-15     6.33471E-15
            2668            2796     5.02363E-15     6.33471E-15
            2651            2796     5.02363E-15     6.33471E-15
            2667            2796     5.02363E-15     6.33471E-15
            2668            2797     5.85139E-15     7.92376E-15
            2651            2797     5.85139E-15     7.92376E-15
            2652            2797     5.85139E-15     7.92376E-15
            2669            2797     5.85139E-15     7.92376E-15
            2669            2798     6.34896E-15     7.81377E-15
            2670            2798     6.34896E-15     7.81377E-15
            2653            2798     6.34896E-15     7.81377E-15
            2652            2798     6.34896E-15     7.81377E-15
            2654            2799     8.39967E-15     8.68218E-15
            2670            2799     8.39967E-15     8.68218E-15
            2653            2799     8.39967E-15     8.68218E-15
            2671            2799     8.39967E-15     8.68218E-15
            2672            2800     14.2898E-15     14.4140E-15
            2655            2800     14.2898E-15     14.4140E-15
            2671            2800     14.2898E-15     14.4140E-15
            2654            2800     14.2898E-15     14.4140E-15
            2673            2801     12.6568E-15     12.7725E-15
            2672            2801     12.6568E-15     12.7725E-15
            2656            2801     12.6568E-15     12.7725E-15
            2655            2801     12.6568E-15     12.7725E-15
            2674            2802     9.39610E-15     9.58201E-15
            2657            2802     9.39610E-15     9.58201E-15
            2656            2802     9.39610E-15     9.58201E-15
            2673            2802     9.39610E-15     9.58201E-15
            2657            2803     11.0013E-15     11.0842E-15
            2675            2803     11.0013E-15     11.0842E-15
            2658            2803     11.0013E-15     11.0842E-15
            2674            2803     11.0013E-15     11.0842E-15
            2658            2804     16.7501E-15     16.9142E-15
            2675            2804     16.7501E-15     16.9142E-15
            2676            2804     16.7501E-15     16.9142E-15
            2659            2804     16.7501E-15     16.9142E-15
            2661            2805     10.6312E-15     13.7294E-15
            2677            2805     10.6312E-15     13.7294E-15
            2660            2805     10.6312E-15     13.7294E-15
            2678            2805     10.6312E-15     13.7294E-15
            2662            2806     10.1546E-15     8.50214E-15
            2679            2806     10.1546E-15     8.50214E-15
            2678            2806     10.1546E-15     8.50214E-15
            2661            2806     10.1546E-15     8.50214E-15
            2662            2807     10.6829E-15     8.20198E-15
            2663            2807     10.6829E-15     8.20198E-15
            2679            2807     10.6829E-15     8.20198E-15
            2680            2807     10.6829E-15     8.20198E-15
            2680            2808     8.76384E-15     9.01757E-15
            2681            2808     8.76384E-15     9.01757E-15
            2664            2808     8.76384E-15     9.01757E-15
            2663            2808     8.76384E-15     9.01757E-15
            2664            2809     8.92973E-15     9.40863E-15
            2665            2809     8.92973E-15     9.40863E-15
            2682            2809     8.92973E-15     9.40863E-15
            2681            2809     8.92973E-15     9.40863E-15
            2682            2810     9.07158E-15     9.32090E-15
            2683            2810     9.07158E-15     9.32090E-15
            2665            2810     9.07158E-15     9.32090E-15
            2666            2810     9.07158E-15     9.32090E-15
            2684            2811     7.10177E-15     8.44378E-15
            2683            2811     7.10177E-15     8.44378E-15
            2667            2811     7.10177E-15     8.44378E-15
            2666            2811     7.10177E-15     8.44378E-15
            2667            2812     5.36083E-15     7.37704E-15
            2684            2812     5.36083E-15     7.37704E-15
            2668            2812     5.36083E-15     7.37704E-15
            2685            2812     5.36083E-15     7.37704E-15
            2669            2813     9.02403E-15     10.2785E-15
            2668            2813     9.02403E-15     10.2785E-15
            2686            2813     9.02403E-15     10.2785E-15
            2685            2813     9.02403E-15     10.2785E-15
            2669            2814     9.43042E-15     9.15083E-15
            2670            2814     9.43042E-15     9.15083E-15
            2686            2814     9.43042E-15     9.15083E-15
            2687            2814     9.43042E-15     9.15083E-15
            2671            2815     5.75757E-15     5.26495E-15
            2688            2815     5.75757E-15     5.26495E-15
            2670            2815     5.75757E-15     5.26495E-15
            2687            2815     5.75757E-15     5.26495E-15
            2689            2816     13.5167E-15     13.9083E-15
            2688            2816     13.5167E-15     13.9083E-15
            2672            2816     13.5167E-15     13.9083E-15
            2671            2816     13.5167E-15     13.9083E-15
            2689            2817     18.5537E-15     18.9188E-15
            2690            2817     18.5537E-15     18.9188E-15
            2672            2817     18.5537E-15     18.9188E-15
            2673            2817     18.5537E-15     18.9188E-15
            2673            2818     12.8616E-15     13.1999E-15
            2691            2818     12.8616E-15     13.1999E-15
            2690            2818     12.8616E-15     13.1999E-15
            2674            2818     12.8616E-15     13.1999E-15
            2692            2819     9.33706E-15     9.63948E-15
            2674            2819     9.33706E-15     9.63948E-15
            2691            2819     9.33706E-15     9.63948E-15
            2675            2819     9.33706E-15     9.63948E-15
            2692            2820     12.0453E-15     11.9012E-15
            2693            2820     12.0453E-15     11.9012E-15
            2675            2820     12.0453E-15     11.9012E-15
            2676            2820     12.0453E-15     11.9012E-15
            2678            2821     12.0607E-15     7.50478E-15
            2694            2821     12.0607E-15     7.50478E-15
            2677            2821     12.0607E-15     7.50478E-15
            2695            2821     12.0607E-15     7.50478E-15
            2678            2822     9.54834E-15     6.96466E-15
            2696            2822     9.54834E-15     6.96466E-15
            2679            2822     9.54834E-15     6.96466E-15
            2695            2822     9.54834E-15     6.96466E-15
            2697            2823     10.3043E-15     8.45658E-15
            2679            2823     10.3043E-15     8.45658E-15
            2696            2823     10.3043E-15     8.45658E-15
            2680            2823     10.3043E-15     8.45658E-15
            2697            2824     9.87470E-15     9.85011E-15
            2681            2824     9.87470E-15     9.85011E-15
            2698            2824     9.87470E-15     9.85011E-15
            2680            2824     9.87470E-15     9.85011E-15
            2698            2825     8.52274E-15     9.70974E-15
            2699            2825     8.52274E-15     9.70974E-15
            2682            2825     8.52274E-15     9.70974E-15
            2681            2825     8.52274E-15     9.70974E-15
            2699            2826     9.86725E-15     9.61014E-15
            2683            2826     9.86725E-15     9.61014E-15
            2682            2826     9.86725E-15     9.61014E-15
            2700            2826     9.86725E-15     9.61014E-15
            2683            2827     8.44947E-15     8.59839E-15
            2684            2827     8.44947E-15     8.59839E-15
            2700            2827     8.44947E-15     8.59839E-15
            2701            2827     8.44947E-15     8.59839E-15
            2701            2828     6.56887E-15     7.95540E-15
            2685            2828     6.56887E-15     7.95540E-15
            2684            2828     6.56887E-15     7.95540E-15
            2702            2828     6.56887E-15     7.95540E-15
            2703            2829     8.79883E-15     9.79866E-15
            2702            2829     8.79883E-15     9.79866E-15
            2686            2829     8.79883E-15     9.79866E-15
            2685            2829     8.79883E-15     9.79866E-15
            2704            2830     10.0120E-15     8.85578E-15
            2687            2830     10.0120E-15     8.85578E-15
            2686            2830     10.0120E-15     8.85578E-15
            2703            2830     10.0120E-15     8.85578E-15
            2704            2831     8.62315E-15     8.79942E-15
            2688            2831     8.62315E-15     8.79942E-15
            2705            2831     8.62315E-15     8.79942E-15
            2687            2831     8.62315E-15     8.79942E-15
            2688            2832     13.3563E-15     14.6263E-15
            2705            2832     13.3563E-15     14.6263E-15
            2689            2832     13.3563E-15     14.6263E-15
            2706            2832     13.3563E-15     14.6263E-15
            2690            2833     14.4928E-15     14.3468E-15
            2689            2833     14.4928E-15     14.3468E-15
            2706            2833     14.4928E-15     14.3468E-15
            2707            2833     14.4928E-15     14.3468E-15
            2691            2834     10.3034E-15     10.0990E-15
            2690            2834     10.3034E-15     10.0990E-15
            2707            2834     10.3034E-15     10.0990E-15
            2708            2834     10.3034E-15     10.0990E-15
            2708            2835     8.10384E-15     8.28200E-15
            2691            2835     8.10384E-15     8.28200E-15
            2709            2835     8.10384E-15     8.28200E-15
            2692            2835     8.10384E-15     8.28200E-15
            2709            2836     9.75887E-15     9.30587E-15
            2692            2836     9.75887E-15     9.30587E-15
            2693            2836     9.75887E-15     9.30587E-15
            2710            2836     9.75887E-15     9.30587E-15
            2711            2837     206.002E-03     218.001E-03
            2712            2837     206.002E-03     218.001E-03
            2729            2837     206.002E-03     218.001E-03
            2728            2837     206.002E-03     218.001E-03
            2729            2838     183.280E-03     193.323E-03
            2713            2838     183.280E-03     193.323E-03
            2730            2838     183.280E-03     193.323E-03
            2712            2838     183.280E-03     193.323E-03
            2730            2839     169.968E-03     180.133E-03
            2731            2839     169.968E-03     180.133E-03
            2714            2839     169.968E-03     180.133E-03
            2713            2839     169.968E-03     180.133E-03
            2731            2840     157.465E-03     167.944E-03
            2732            2840     157.465E-03     167.944E-03
            2715            2840     157.465E-03     167.944E-03
            2714            2840     157.465E-03     167.944E-03
            2732            2841     145.331E-03     155.744E-03
            2733            2841     145.331E-03     155.744E-03
            2715            2841     145.331E-03     155.744E-03
            2716            2841     145.331E-03     155.744E-03
            2734            2842     132.898E-03     143.385E-03
            2717            2842     132.898E-03     143.385E-03
            2733            2842     132.898E-03     143.385E-03
            2716            2842     132.898E-03     143.385E-03
            2735            2843     120.512E-03     130.942E-03
            2717            2843     120.512E-03     130.942E-03
            2718            2843     120.512E-03     130.942E-03
            2734            2843     120.512E-03     130.942E-03
            2719            2844     108.022E-03     118.482E-03
            2736            2844     108.022E-03     118.482E-03
            2735            2844     108.022E-03     118.482E-03
            2718            2844     108.022E-03     118.482E-03
            2719            2845     95.5885E-03     105.997E-03
            2737            2845     95.5885E-03     105.997E-03
            2736            2845     95.5885E-03     105.997E-03
            2720            2845     95.5885E-03     105.997E-03
            2737            2846     83.1228E-03     93.5334E-03
            2738            2846     83.1228E-03     93.5334E-03
            2720            2846     83.1228E-03     93.5334E-03
            2721            2846     83.1228E-03     93.5334E-03
            2738            2847     70.7150E-03     81.0658E-03
            2739            2847     70.7150E-03     81.0658E-03
            2721            2847     70.7150E-03     81.0658E-03
            2722            2847     70.7150E-03     81.0658E-03
            2722            2848     58.3406E-03     68.6420E-03
            2723            2848     58.3406E-03     68.6420E-03
            2740            2848     58.3406E-03     68.6420E-03
            2739            2848     58.3406E-03     68.6420E-03
            2723            2849     46.0188E-03     56.2966E-03
            2740            2849     46.0188E-03     56.2966E-03
            2741            2849     46.0188E-03     56.2966E-03
            2724            2849     46.0188E-03     56.2966E-03
            2725            2850     34.1021E-03     44.0096E-03
            2741            2850     34.1021E-03     44.0096E-03
            2742            2850     34.1021E-03     44.0096E-03
            2724            2850     34.1021E-03     44.0096E-03
            2742            2851     22.8842E-03     31.5454E-03
            2743            2851     22.8842E-03     31.5454E-03
            2726            2851     22.8842E-03     31.5454E-03
            2725            2851     22.8842E-03     31.5454E-03
            2743            2852     13.2890E-03     19.7714E-03
            2726            2852     13.2890E-03     19.7714E-03
            2727            2852     13.2890E-03     19.7714E-03
            2744            2852     13.2890E-03     19.7714E-03
            2728            2853     200.587E-03     210.576E-03
            2745            2853     200.587E-03     210.576E-03
            2746            2853     200.587E-03     210.576E-03
            2729            2853     200.587E-03     210.576E-03
            2747            2854     171.896E-03     184.514E-03
            2729            2854     171.896E-03     184.514E-03
            2730            2854     171.896E-03     184.514E-03
            2746            2854     171.896E-03     184.514E-03
            2730            2855     157.674E-03     170.152E-03
            2748            2855     157.674E-03     170.152E-03
            2731            2855     157.674E-03     170.152E-03
            2747            2855     157.674E-03     170.152E-03
            2732            2856     146.466E-03     158.764E-03
            2748            2856     146.466E-03     158.764E-03
            2731            2856     146.466E-03     158.764E-03
            2749            2856     146.466E-03     158.764E-03
            2733            2857     134.827E-03     147.242E-03
            2749            2857     134.827E-03     147.242E-03
            2732            2857     134.827E-03     147.242E-03
            2750            2857     134.827E-03     147.242E-03
            2734            2858     123.379E-03     135.781E-03
            2750            2858     123.379E-03     135.781E-03
            2751            2858     123.379E-03     135.781E-03
            2733            2858     123.379E-03     135.781E-03
            2752            2859     111.800E-03     124.165E-03
            2751            2859     111.800E-03     124.165E-03
            2735            2859     111.800E-03     124.165E-03
            2734            2859     111.800E-03     124.165E-03
            2735            2860     100.283E-03     112.656E-03
            2752            2860     100.283E-03     112.656E-03
            2736            2860     100.283E-03     112.656E-03
            2753            2860     100.283E-03     112.656E-03
            2736            2861     88.7930E-03     101.104E-03
            2737            2861     88.7930E-03     101.104E-03
            2753            2861     88.7930E-03     101.104E-03
            2754            2861     88.7930E-03     101.104E-03
            2737            2862     77.3623E-03     89.6419E-03
            2738            2862     77.3623E-03     89.6419E-03
            2755            2862     77.3623E-03     89.6419E-03
            2754            2862     77.3623E-03     89.6419E-03
            2756            2863     66.0261E-03     78.2037E-03
            2738            2863     66.0261E-03     78.2037E-03
            2755            2863     66.0261E-03     78.2037E-03
            2739            2863     66.0261E-03     78.2037E-03
            2740            2864     54.8114E-03     66.9029E-03
            2739            2864     54.8114E-03     66.9029E-03
            2757            2864     54.8114E-03     66.9029E-03
            2756            2864     54.8114E-03     66.9029E-03
            2758            2865     43.8944E-03     55.7054E-03
            2740            2865     43.8944E-03     55.7054E-03
            2741            2865     43.8944E-03     55.7054E-03
            2757            2865     43.8944E-03     55.7054E-03
            2758            2866     33.5870E-03     44.8610E-03
            2759            2866     33.5870E-03     44.8610E-03
            2741            2866     33.5870E-03     44.8610E-03
            2742            2866     33.5870E-03     44.8610E-03
            2760            2867     24.7334E-03     34.4942E-03
            2759            2867     24.7334E-03     34.4942E-03
            2742            2867     24.7334E-03     34.4942E-03
            2743            2867     24.7334E-03     34.4942E-03
            2743            2868     19.6747E-03     23.8802E-03
            2744            2868     19.6747E-03     23.8802E-03
            2760            2868     19.6747E-03     23.8802E-03
            2761            2868     19.6747E-03     23.8802E-03
            2746            2869     190.617E-03     192.575E-03
            2762            2869     190.617E-03     192.575E-03
            2763            2869     190.617E-03     192.575E-03
            2745            2869     190.617E-03     192.575E-03
            2747            2870     177.867E-03     181.763E-03
            2763            2870     177.867E-03     181.763E-03
            2764            2870     177.867E-03     181.763E-03
            2746            2870     177.867E-03     181.763E-03
            2765            2871     164.592E-03     168.282E-03
            2748            2871     164.592E-03     168.282E-03
            2764            2871     164.592E-03     168.282E-03
            2747            2871     164.592E-03     168.282E-03
            2765            2872     152.542E-03     156.065E-03
            2749            2872     152.542E-03     156.065E-03
            2748            2872     152.542E-03     156.065E-03
            2766            2872     152.542E-03     156.065E-03
            2767            2873     140.743E-03     144.180E-03
            2750            2873     140.743E-03     144.180E-03
            2749            2873     140.743E-03     144.180E-03
            2766            2873     140.743E-03     144.180E-03
            2751            2874     129.097E-03     132.512E-03
            2767            2874     129.097E-03     132.512E-03
            2750            2874     129.097E-03     132.512E-03
            2768            2874     129.097E-03     132.512E-03
            2752            2875     117.575E-03     121.022E-03
            2769            2875     117.575E-03     121.022E-03
            2751            2875     117.575E-03     121.022E-03
            2768            2875     117.575E-03     121.022E-03
            2753            2876     106.145E-03     109.560E-03
            2752            2876     106.145E-03     109.560E-03
            2770            2876     106.145E-03     109.560E-03
            2769            2876     106.145E-03     109.560E-03
            2753            2877     94.7873E-03     98.2122E-03
            2770            2877     94.7873E-03     98.2122E-03
            2771            2877     94.7873E-03     98.2122E-03
            2754            2877     94.7873E-03     98.2122E-03
            2755            2878     83.5449E-03     86.9321E-03
            2771            2878     83.5449E-03     86.9321E-03
            2754            2878     83.5449E-03     86.9321E-03
            2772            2878     83.5449E-03     86.9321E-03
            2772            2879     72.4346E-03     75.8062E-03
            2755            2879     72.4346E-03     75.8062E-03
            2773            2879     72.4346E-03     75.8062E-03
            2756            2879     72.4346E-03     75.8062E-03
            2756            2880     61.5524E-03     64.8503E-03
            2773            2880     61.5524E-03     64.8503E-03
            2757            2880     61.5524E-03     64.8503E-03
            2774            2880     61.5524E-03     64.8503E-03
            2757            2881     51.1140E-03     54.1746E-03
            2774            2881     51.1140E-03     54.1746E-03
            2775            2881     51.1140E-03     54.1746E-03
            2758            2881     51.1140E-03     54.1746E-03
            2759            2882     41.1787E-03     44.1462E-03
            2758            2882     41.1787E-03     44.1462E-03
            2775            2882     41.1787E-03     44.1462E-03
            2776            2882     41.1787E-03     44.1462E-03
            2759            2883     32.6588E-03     35.5550E-03
            2777            2883     32.6588E-03     35.5550E-03
            2760            2883     32.6588E-03     35.5550E-03
            2776            2883     32.6588E-03     35.5550E-03
            2778            2884     28.2475E-03     28.0739E-03
            2761            2884     28.2475E-03     28.0739E-03
            2760            2884     28.2475E-03     28.0739E-03
            2777            2884     28.2475E-03     28.0739E-03
            2762            2885     170.873E-03     167.383E-03
            2763            2885     170.873E-03     167.383E-03
            2780            2885     170.873E-03     167.383E-03
            2779            2885     170.873E-03     167.383E-03
            2780            2886     175.766E-03     169.953E-03
            2763            2886     175.766E-03     169.953E-03
            2781            2886     175.766E-03     169.953E-03
            2764            2886     175.766E-03     169.953E-03
            2782            2887     167.705E-03     162.039E-03
            2764            2887     167.705E-03     162.039E-03
            2781            2887     167.705E-03     162.039E-03
            2765            2887     167.705E-03     162.039E-03
            2766            2888     156.414E-03     151.049E-03
            2765            2888     156.414E-03     151.049E-03
            2782            2888     156.414E-03     151.049E-03
            2783            2888     156.414E-03     151.049E-03
            2783            2889     145.438E-03     139.961E-03
            2766            2889     145.438E-03     139.961E-03
            2784            2889     145.438E-03     139.961E-03
            2767            2889     145.438E-03     139.961E-03
            2785            2890     134.229E-03     128.883E-03
            2784            2890     134.229E-03     128.883E-03
            2767            2890     134.229E-03     128.883E-03
            2768            2890     134.229E-03     128.883E-03
            2769            2891     123.164E-03     117.820E-03
            2785            2891     123.164E-03     117.820E-03
            2768            2891     123.164E-03     117.820E-03
            2786            2891     123.164E-03     117.820E-03
            2787            2892     112.025E-03     106.764E-03
            2786            2892     112.025E-03     106.764E-03
            2769            2892     112.025E-03     106.764E-03
            2770            2892     112.025E-03     106.764E-03
            2770            2893     100.978E-03     95.7679E-03
            2788            2893     100.978E-03     95.7679E-03
            2771            2893     100.978E-03     95.7679E-03
            2787            2893     100.978E-03     95.7679E-03
            2789            2894     89.9955E-03     84.8993E-03
            2788            2894     89.9955E-03     84.8993E-03
            2771            2894     89.9955E-03     84.8993E-03
            2772            2894     89.9955E-03     84.8993E-03
            2790            2895     79.1948E-03     74.2296E-03
            2773            2895     79.1948E-03     74.2296E-03
            2789            2895     79.1948E-03     74.2296E-03
            2772            2895     79.1948E-03     74.2296E-03
            2774            2896     68.6589E-03     63.8719E-03
            2773            2896     68.6589E-03     63.8719E-03
            2790            2896     68.6589E-03     63.8719E-03
            2791            2896     68.6589E-03     63.8719E-03
            2792            2897     58.5240E-03     54.0733E-03
            2774            2897     58.5240E-03     54.0733E-03
            2791            2897     58.5240E-03     54.0733E-03
            2775            2897     58.5240E-03     54.0733E-03
            2792            2898     49.0328E-03     45.1061E-03
            2775            2898     49.0328E-03     45.1061E-03
            2793            2898     49.0328E-03     45.1061E-03
            2776            2898     49.0328E-03     45.1061E-03
            2793            2899     40.6545E-03     37.9258E-03
            2777            2899     40.6545E-03     37.9258E-03
            2794            2899     40.6545E-03     37.9258E-03
            2776            2899     40.6545E-03     37.9258E-03
            2794            2900     34.0958E-03     34.5503E-03
            2795            2900     34.0958E-03     34.5503E-03
            2777            2900     34.0958E-03     34.5503E-03
            2778            2900     34.0958E-03     34.5503E-03
            2802            2901     84.1015E-03     81.4007E-03
            2796            2901     84.1015E-03     81.4007E-03
            2797            2901     84.1015E-03     81.4007E-03
            2801            2901     84.1015E-03     81.4007E-03
            2803            2902     135.834E-03     129.073E-03
            2798            2902     135.834E-03     129.073E-03
            2802            2902     135.834E-03     129.073E-03
            2797            2902     135.834E-03     129.073E-03
            2803            2903     183.242E-03     175.517E-03
            2804            2903     183.242E-03     175.517E-03
            2799            2903     183.242E-03     175.517E-03
            2798            2903     183.242E-03     175.517E-03
            2799            2904     211.185E-03     201.597E-03
            2804            2904     211.185E-03     201.597E-03
            2805            2904     211.185E-03     201.597E-03
            2800            2904     211.185E-03     201.597E-03
            2806            2905     86.4634E-03     88.3545E-03
            2802            2905     86.4634E-03     88.3545E-03
            2801            2905     86.4634E-03     88.3545E-03
            2807            2905     86.4634E-03     88.3545E-03
            2803            2906     140.287E-03     142.017E-03
            2802            2906     140.287E-03     142.017E-03
            2807            2906     140.287E-03     142.017E-03
            2808            2906     140.287E-03     142.017E-03
            2804            2907     181.065E-03     187.849E-03
            2803            2907     181.065E-03     187.849E-03
            2808            2907     181.065E-03     187.849E-03
            2809            2907     181.065E-03     187.849E-03
            2805            2908     207.405E-03     214.923E-03
            2809            2908     207.405E-03     214.923E-03
            2804            2908     207.405E-03     214.923E-03
            2810            2908     207.405E-03     214.923E-03
            2812            2909     90.9232E-03     92.0476E-03
            2811            2909     90.9232E-03     92.0476E-03
            2807            2909     90.9232E-03     92.0476E-03
            2806            2909     90.9232E-03     92.0476E-03
            2808            2910     149.241E-03     145.969E-03
            2807            2910     149.241E-03     145.969E-03
            2812            2910     149.241E-03     145.969E-03
            2813            2910     149.241E-03     145.969E-03
            2814            2911     193.028E-03     192.927E-03
            2813            2911     193.028E-03     192.927E-03
            2809            2911     193.028E-03     192.927E-03
            2808            2911     193.028E-03     192.927E-03
            2810            2912     223.023E-03     224.557E-03
            2815            2912     223.023E-03     224.557E-03
            2809            2912     223.023E-03     224.557E-03
            2814            2912     223.023E-03     224.557E-03
            2816            2913     90.2269E-03     86.2054E-03
            2817            2913     90.2269E-03     86.2054E-03
            2811            2913     90.2269E-03     86.2054E-03
            2812            2913     90.2269E-03     86.2054E-03
            2813            2914     151.955E-03     142.816E-03
            2812            2914     151.955E-03     142.816E-03
            2818            2914     151.955E-03     142.816E-03
            2817            2914     151.955E-03     142.816E-03
            2814            2915     204.145E-03     195.681E-03
            2819            2915     204.145E-03     195.681E-03
            2818            2915     204.145E-03     195.681E-03
            2813            2915     204.145E-03     195.681E-03
            2814            2916     242.657E-03     235.522E-03
            2820            2916     242.657E-03     235.522E-03
            2819            2916     242.657E-03     235.522E-03
            2815            2916     242.657E-03     235.522E-03
            2837            2925     139.354E-03     141.767E-03
            2836            2925     139.354E-03     141.767E-03
            2842            2925     139.354E-03     141.767E-03
            2841            2925     139.354E-03     141.767E-03
            2843            2926     135.158E-03     137.033E-03
            2838            2926     135.158E-03     137.033E-03
            2842            2926     135.158E-03     137.033E-03
            2837            2926     135.158E-03     137.033E-03
            2838            2927     128.347E-03     129.063E-03
            2839            2927     128.347E-03     129.063E-03
            2844            2927     128.347E-03     129.063E-03
            2843            2927     128.347E-03     129.063E-03
            2845            2928     123.575E-03     122.982E-03
            2844            2928     123.575E-03     122.982E-03
            2839            2928     123.575E-03     122.982E-03
            2840            2928     123.575E-03     122.982E-03
            2841            2929     138.159E-03     148.427E-03
            2842            2929     138.159E-03     148.427E-03
            2847            2929     138.159E-03     148.427E-03
            2846            2929     138.159E-03     148.427E-03
            2847            2930     131.807E-03     140.991E-03
            2843            2930     131.807E-03     140.991E-03
            2842            2930     131.807E-03     140.991E-03
            2848            2930     131.807E-03     140.991E-03
            2843            2931     130.160E-03     132.445E-03
            2844            2931     130.160E-03     132.445E-03
            2848            2931     130.160E-03     132.445E-03
            2849            2931     130.160E-03     132.445E-03
            2844            2932     129.868E-03     128.505E-03
            2845            2932     129.868E-03     128.505E-03
            2850            2932     129.868E-03     128.505E-03
            2849            2932     129.868E-03     128.505E-03
            2847            2933     150.414E-03     150.251E-03
            2846            2933     150.414E-03     150.251E-03
            2851            2933     150.414E-03     150.251E-03
            2852            2933     150.414E-03     150.251E-03
            2853            2934     135.753E-03     133.920E-03
            2848            2934     135.753E-03     133.920E-03
            2847            2934     135.753E-03     133.920E-03
            2852            2934     135.753E-03     133.920E-03
            2854            2935     132.171E-03     127.467E-03
            2849            2935     132.171E-03     127.467E-03
            2848            2935     132.171E-03     127.467E-03
            2853            2935     132.171E-03     127.467E-03
            2850            2936     129.606E-03     126.092E-03
            2849            2936     129.606E-03     126.092E-03
            2855            2936     129.606E-03     126.092E-03
            2854            2936     129.606E-03     126.092E-03
            2852            2937     124.523E-03     119.911E-03
            2851            2937     124.523E-03     119.911E-03
            2857            2937     124.523E-03     119.911E-03
            2856            2937     124.523E-03     119.911E-03
            2852            2938     122.698E-03     117.324E-03
            2858            2938     122.698E-03     117.324E-03
            2857            2938     122.698E-03     117.324E-03
            2853            2938     122.698E-03     117.324E-03
            2853            2939     125.933E-03     120.461E-03
            2858            2939     125.933E-03     120.461E-03
            2859            2939     125.933E-03     120.461E-03
            2854            2939     125.933E-03     120.461E-03
            2855            2940     127.775E-03     126.332E-03
            2854            2940     127.775E-03     126.332E-03
            2860            2940     127.775E-03     126.332E-03
            2859            2940     127.775E-03     126.332E-03
            2857            2941     85.4715E-03     94.8066E-03
            2856            2941     85.4715E-03     94.8066E-03
            2862            2941     85.4715E-03     94.8066E-03
            2861            2941     85.4715E-03     94.8066E-03
            2863            2942     94.7966E-03     102.763E-03
            2857            2942     94.7966E-03     102.763E-03
            2858            2942     94.7966E-03     102.763E-03
            2862            2942     94.7966E-03     102.763E-03
            2863            2943     111.313E-03     114.840E-03
            2859            2943     111.313E-03     114.840E-03
            2858            2943     111.313E-03     114.840E-03
            2864            2943     111.313E-03     114.840E-03
            2860            2944     122.337E-03     123.696E-03
            2865            2944     122.337E-03     123.696E-03
            2859            2944     122.337E-03     123.696E-03
            2864            2944     122.337E-03     123.696E-03
            2861            2945     67.1905E-03     61.8241E-03
            2862            2945     67.1905E-03     61.8241E-03
            2867            2945     67.1905E-03     61.8241E-03
            2866            2945     67.1905E-03     61.8241E-03
            2867            2946     86.0178E-03     82.4251E-03
            2868            2946     86.0178E-03     82.4251E-03
            2862            2946     86.0178E-03     82.4251E-03
            2863            2946     86.0178E-03     82.4251E-03
            2868            2947     107.309E-03     106.445E-03
            2863            2947     107.309E-03     106.445E-03
            2864            2947     107.309E-03     106.445E-03
            2869            2947     107.309E-03     106.445E-03
            2864            2948     121.394E-03     120.934E-03
            2869            2948     121.394E-03     120.934E-03
            2870            2948     121.394E-03     120.934E-03
            2865            2948     121.394E-03     120.934E-03
            2872            2949     43.6384E-03     44.7005E-03
            2867            2949     43.6384E-03     44.7005E-03
            2871            2949     43.6384E-03     44.7005E-03
            2866            2949     43.6384E-03     44.7005E-03
            2868            2950     75.0477E-03     77.0430E-03
            2872            2950     75.0477E-03     77.0430E-03
            2873            2950     75.0477E-03     77.0430E-03
            2867            2950     75.0477E-03     77.0430E-03
            2869            2951     101.279E-03     103.426E-03
            2873            2951     101.279E-03     103.426E-03
            2874            2951     101.279E-03     103.426E-03
            2868            2951     101.279E-03     103.426E-03
            2870            2952     119.886E-03     119.576E-03
            2869            2952     119.886E-03     119.576E-03
            2874            2952     119.886E-03     119.576E-03
            2875            2952     119.886E-03     119.576E-03
            2872            2953     38.4581E-03     43.4165E-03
            2871            2953     38.4581E-03     43.4165E-03
            2877            2953     38.4581E-03     43.4165E-03
            2876            2953     38.4581E-03     43.4165E-03
            2872            2954     71.3353E-03     74.0616E-03
            2877            2954     71.3353E-03     74.0616E-03
            2873            2954     71.3353E-03     74.0616E-03
            2878            2954     71.3353E-03     74.0616E-03
            2873            2955     98.0440E-03     99.7668E-03
            2874            2955     98.0440E-03     99.7668E-03
            2879            2955     98.0440E-03     99.7668E-03
            2878            2955     98.0440E-03     99.7668E-03
            2875            2956     119.274E-03     117.890E-03
            2874            2956     119.274E-03     117.890E-03
            2879            2956     119.274E-03     117.890E-03
            2880            2956     119.274E-03     117.890E-03
            2882            2957     38.6752E-03     41.8275E-03
            2881            2957     38.6752E-03     41.8275E-03
            2876            2957     38.6752E-03     41.8275E-03
            2877            2957     38.6752E-03     41.8275E-03
            2877            2958     61.2002E-03     62.1639E-03
            2882            2958     61.2002E-03     62.1639E-03
            2878            2958     61.2002E-03     62.1639E-03
            2883            2958     61.2002E-03     62.1639E-03
            2884            2959     81.1954E-03     81.5470E-03
            2883            2959     81.1954E-03     81.5470E-03
            2878            2959     81.1954E-03     81.5470E-03
            2879            2959     81.1954E-03     81.5470E-03
            2880            2960     95.9621E-03     95.3657E-03
            2885            2960     95.9621E-03     95.3657E-03
            2884            2960     95.9621E-03     95.3657E-03
            2879            2960     95.9621E-03     95.3657E-03
            2916            2977     12.7590E-15     12.7327E-15
            2917            2977     12.7590E-15     12.7327E-15
            2921            2977     12.7590E-15     12.7327E-15
            2922            2977     12.7590E-15     12.7327E-15
            2922            2978     11.7449E-15     11.3380E-15
            2918            2978     11.7449E-15     11.3380E-15
            2917            2978     11.7449E-15     11.3380E-15
            2923            2978     11.7449E-15     11.3380E-15
            2924            2979     9.41105E-15     8.74068E-15
            2918            2979     9.41105E-15     8.74068E-15
            2923            2979     9.41105E-15     8.74068E-15
            2919            2979     9.41105E-15     8.74068E-15
            2924            2980     7.83619E-15     7.09400E-15
            2925            2980     7.83619E-15     7.09400E-15
            2920            2980     7.83619E-15     7.09400E-15
            2919            2980     7.83619E-15     7.09400E-15
            2927            2981     13.3804E-15     13.2690E-15
            2926            2981     13.3804E-15     13.2690E-15
            2921            2981     13.3804E-15     13.2690E-15
            2922            2981     13.3804E-15     13.2690E-15
            2922            2982     10.9491E-15     11.3673E-15
            2928            2982     10.9491E-15     11.3673E-15
            2927            2982     10.9491E-15     11.3673E-15
            2923            2982     10.9491E-15     11.3673E-15
            2929            2983     8.87380E-15     8.98212E-15
            2923            2983     8.87380E-15     8.98212E-15
            2924            2983     8.87380E-15     8.98212E-15
            2928            2983     8.87380E-15     8.98212E-15
            2925            2984     7.86594E-15     7.15101E-15
            2930            2984     7.86594E-15     7.15101E-15
            2924            2984     7.86594E-15     7.15101E-15
            2929            2984     7.86594E-15     7.15101E-15
            2926            2985     10.8921E-15     11.3051E-15
            2931            2985     10.8921E-15     11.3051E-15
            2927            2985     10.8921E-15     11.3051E-15
            2932            2985     10.8921E-15     11.3051E-15
            2927            2986     8.86906E-15     9.45288E-15
            2932            2986     8.86906E-15     9.45288E-15
            2933            2986     8.86906E-15     9.45288E-15
            2928            2986     8.86906E-15     9.45288E-15
            2928            2987     6.83889E-15     5.80827E-15
            2934            2987     6.83889E-15     5.80827E-15
            2933            2987     6.83889E-15     5.80827E-15
            2929            2987     6.83889E-15     5.80827E-15
            2935            2988     7.94070E-15     5.86184E-15
            2934            2988     7.94070E-15     5.86184E-15
            2930            2988     7.94070E-15     5.86184E-15
            2929            2988     7.94070E-15     5.86184E-15
            2936            2989     12.3430E-15     13.2073E-15
            2937            2989     12.3430E-15     13.2073E-15
            2932            2989     12.3430E-15     13.2073E-15
            2931            2989     12.3430E-15     13.2073E-15
            2938            2990     11.5032E-15     10.3723E-15
            2937            2990     11.5032E-15     10.3723E-15
            2933            2990     11.5032E-15     10.3723E-15
            2932            2990     11.5032E-15     10.3723E-15
            2938            2991     7.77040E-15     5.42620E-15
            2939            2991     7.77040E-15     5.42620E-15
            2933            2991     7.77040E-15     5.42620E-15
            2934            2991     7.77040E-15     5.42620E-15
            2935            2992     8.99002E-15     7.84639E-15
            2939            2992     8.99002E-15     7.84639E-15
            2940            2992     8.99002E-15     7.84639E-15
            2934            2992     8.99002E-15     7.84639E-15
            2971            3011     13.6645E-15     12.9972E-15
            2988            3011     13.6645E-15     12.9972E-15
            2989            3011     13.6645E-15     12.9972E-15
            2972            3011     13.6645E-15     12.9972E-15
            2989            3012     11.3123E-15     10.8469E-15
            2990            3012     11.3123E-15     10.8469E-15
            2972            3012     11.3123E-15     10.8469E-15
            2973            3012     11.3123E-15     10.8469E-15
            2973            3013     8.99835E-15     9.49113E-15
            2990            3013     8.99835E-15     9.49113E-15
            2991            3013     8.99835E-15     9.49113E-15
            2974            3013     8.99835E-15     9.49113E-15
            2992            3014     9.85618E-15     10.0406E-15
            2974            3014     9.85618E-15     10.0406E-15
            2975            3014     9.85618E-15     10.0406E-15
            2991            3014     9.85618E-15     10.0406E-15
            2993            3015     8.43309E-15     8.50215E-15
            2975            3015     8.43309E-15     8.50215E-15
            2992            3015     8.43309E-15     8.50215E-15
            2976            3015     8.43309E-15     8.50215E-15
            2993            3016     6.93320E-15     7.05663E-15
            2976            3016     6.93320E-15     7.05663E-15
            2977            3016     6.93320E-15     7.05663E-15
            2994            3016     6.93320E-15     7.05663E-15
            2995            3017     7.40134E-15     8.54439E-15
            2978            3017     7.40134E-15     8.54439E-15
            2994            3017     7.40134E-15     8.54439E-15
            2977            3017     7.40134E-15     8.54439E-15
            2995            3018     7.96109E-15     9.46434E-15
            2996            3018     7.96109E-15     9.46434E-15
            2978            3018     7.96109E-15     9.46434E-15
            2979            3018     7.96109E-15     9.46434E-15
            2980            3019     7.82326E-15     7.53851E-15
            2997            3019     7.82326E-15     7.53851E-15
            2996            3019     7.82326E-15     7.53851E-15
            2979            3019     7.82326E-15     7.53851E-15
            2998            3020     12.9060E-15     12.5307E-15
            2997            3020     12.9060E-15     12.5307E-15
            2981            3020     12.9060E-15     12.5307E-15
            2980            3020     12.9060E-15     12.5307E-15
            2981            3021     18.0391E-15     17.0084E-15
            2998            3021     18.0391E-15     17.0084E-15
            2999            3021     18.0391E-15     17.0084E-15
            2982            3021     18.0391E-15     17.0084E-15
            3000            3022     14.6449E-15     14.0433E-15
            2982            3022     14.6449E-15     14.0433E-15
            2999            3022     14.6449E-15     14.0433E-15
            2983            3022     14.6449E-15     14.0433E-15
            2983            3023     11.1663E-15     13.0555E-15
            2984            3023     11.1663E-15     13.0555E-15
            3000            3023     11.1663E-15     13.0555E-15
            3001            3023     11.1663E-15     13.0555E-15
            3002            3024     9.11327E-15     12.6157E-15
            2984            3024     9.11327E-15     12.6157E-15
            2985            3024     9.11327E-15     12.6157E-15
            3001            3024     9.11327E-15     12.6157E-15
            2985            3025     9.89949E-15     8.71385E-15
            3003            3025     9.89949E-15     8.71385E-15
            3002            3025     9.89949E-15     8.71385E-15
            2986            3025     9.89949E-15     8.71385E-15
            3003            3026     11.0885E-15     6.16300E-15
            2987            3026     11.0885E-15     6.16300E-15
            2986            3026     11.0885E-15     6.16300E-15
            3004            3026     11.0885E-15     6.16300E-15
            2989            3027     10.7689E-15     9.52976E-15
            2988            3027     10.7689E-15     9.52976E-15
            3006            3027     10.7689E-15     9.52976E-15
            3005            3027     10.7689E-15     9.52976E-15
            2989            3028     9.09385E-15     8.09113E-15
            2990            3028     9.09385E-15     8.09113E-15
            3006            3028     9.09385E-15     8.09113E-15
            3007            3028     9.09385E-15     8.09113E-15
            2991            3029     6.10798E-15     6.33855E-15
            3008            3029     6.10798E-15     6.33855E-15
            2990            3029     6.10798E-15     6.33855E-15
            3007            3029     6.10798E-15     6.33855E-15
            3009            3030     8.63175E-15     9.10573E-15
            2992            3030     8.63175E-15     9.10573E-15
            3008            3030     8.63175E-15     9.10573E-15
            2991            3030     8.63175E-15     9.10573E-15
            2992            3031     9.43847E-15     9.59518E-15
            2993            3031     9.43847E-15     9.59518E-15
            3010            3031     9.43847E-15     9.59518E-15
            3009            3031     9.43847E-15     9.59518E-15
            3011            3032     5.17557E-15     5.92137E-15
            2994            3032     5.17557E-15     5.92137E-15
            2993            3032     5.17557E-15     5.92137E-15
            3010            3032     5.17557E-15     5.92137E-15
            2995            3033     4.21048E-15     4.99544E-15
            2994            3033     4.21048E-15     4.99544E-15
            3011            3033     4.21048E-15     4.99544E-15
            3012            3033     4.21048E-15     4.99544E-15
            2995            3034     6.12381E-15     4.88389E-15
            2996            3034     6.12381E-15     4.88389E-15
            3012            3034     6.12381E-15     4.88389E-15
            3013            3034     6.12381E-15     4.88389E-15
            2997            3035     7.31654E-15     6.49930E-15
            3013            3035     7.31654E-15     6.49930E-15
            3014            3035     7.31654E-15     6.49930E-15
            2996            3035     7.31654E-15     6.49930E-15
            3015            3036     9.18806E-15     11.3747E-15
            2998            3036     9.18806E-15     11.3747E-15
            3014            3036     9.18806E-15     11.3747E-15
            2997            3036     9.18806E-15     11.3747E-15
            2999            3037     11.4179E-15     15.5095E-15
            2998            3037     11.4179E-15     15.5095E-15
            3015            3037     11.4179E-15     15.5095E-15
            3016            3037     11.4179E-15     15.5095E-15
            3000            3038     10.9901E-15     14.9667E-15
            3017            3038     10.9901E-15     14.9667E-15
            2999            3038     10.9901E-15     14.9667E-15
            3016            3038     10.9901E-15     14.9667E-15
            3001            3039     12.0105E-15     14.4765E-15
            3000            3039     12.0105E-15     14.4765E-15
            3017            3039     12.0105E-15     14.4765E-15
            3018            3039     12.0105E-15     14.4765E-15
            3002            3040     11.5429E-15     14.1042E-15
            3019            3040     11.5429E-15     14.1042E-15
            3001            3040     11.5429E-15     14.1042E-15
            3018            3040     11.5429E-15     14.1042E-15
            3003            3041     8.53620E-15     10.7400E-15
            3002            3041     8.53620E-15     10.7400E-15
            3019            3041     8.53620E-15     10.7400E-15
            3020            3041     8.53620E-15     10.7400E-15
            3021            3042     8.38022E-15     10.2127E-15
            3004            3042     8.38022E-15     10.2127E-15
            3003            3042     8.38022E-15     10.2127E-15
            3020            3042     8.38022E-15     10.2127E-15
            3005            3043     13.0671E-15     11.8593E-15
            3023            3043     13.0671E-15     11.8593E-15
            3006            3043     13.0671E-15     11.8593E-15
            3022            3043     13.0671E-15     11.8593E-15
            3023            3044     12.4600E-15     11.6023E-15
            3007            3044     12.4600E-15     11.6023E-15
            3006            3044     12.4600E-15     11.6023E-15
            3024            3044     12.4600E-15     11.6023E-15
            3008            3045     8.58638E-15     8.75682E-15
            3024            3045     8.58638E-15     8.75682E-15
            3007            3045     8.58638E-15     8.75682E-15
            3025            3045     8.58638E-15     8.75682E-15
            3025            3046     8.53062E-15     8.75991E-15
            3008            3046     8.53062E-15     8.75991E-15
            3009            3046     8.53062E-15     8.75991E-15
            3026            3046     8.53062E-15     8.75991E-15
            3027            3047     8.75455E-15     8.87408E-15
            3009            3047     8.75455E-15     8.87408E-15
            3010            3047     8.75455E-15     8.87408E-15
            3026            3047     8.75455E-15     8.87408E-15
            3027            3048     5.43293E-15     5.92625E-15
            3010            3048     5.43293E-15     5.92625E-15
            3028            3048     5.43293E-15     5.92625E-15
            3011            3048     5.43293E-15     5.92625E-15
            3028            3049     2.79129E-15     2.62791E-15
            3029            3049     2.79129E-15     2.62791E-15
            3012            3049     2.79129E-15     2.62791E-15
            3011            3049     2.79129E-15     2.62791E-15
            3029            3050     5.72497E-15     4.58018E-15
            3012            3050     5.72497E-15     4.58018E-15
            3013            3050     5.72497E-15     4.58018E-15
            3030            3050     5.72497E-15     4.58018E-15
            3030            3051     7.22734E-15     6.63655E-15
            3014            3051     7.22734E-15     6.63655E-15
            3031            3051     7.22734E-15     6.63655E-15
            3013            3051     7.22734E-15     6.63655E-15
            3031            3052     5.98649E-15     6.76351E-15
            3014            3052     5.98649E-15     6.76351E-15
            3032            3052     5.98649E-15     6.76351E-15
            3015            3052     5.98649E-15     6.76351E-15
            3033            3053     7.00775E-15     8.72548E-15
            3015            3053     7.00775E-15     8.72548E-15
            3016            3053     7.00775E-15     8.72548E-15
            3032            3053     7.00775E-15     8.72548E-15
            3016            3054     8.61716E-15     11.1072E-15
            3034            3054     8.61716E-15     11.1072E-15
            3033            3054     8.61716E-15     11.1072E-15
            3017            3054     8.61716E-15     11.1072E-15
            3034            3055     10.3783E-15     11.1569E-15
            3018            3055     10.3783E-15     11.1569E-15
            3017            3055     10.3783E-15     11.1569E-15
            3035            3055     10.3783E-15     11.1569E-15
            3036            3056     12.1028E-15     13.6687E-15
            3019            3056     12.1028E-15     13.6687E-15
            3018            3056     12.1028E-15     13.6687E-15
            3035            3056     12.1028E-15     13.6687E-15
            3036            3057     10.6822E-15     14.5832E-15
            3019            3057     10.6822E-15     14.5832E-15
            3020            3057     10.6822E-15     14.5832E-15
            3037            3057     10.6822E-15     14.5832E-15
            3020            3058     10.7138E-15     14.3991E-15
            3037            3058     10.7138E-15     14.3991E-15
            3021            3058     10.7138E-15     14.3991E-15
            3038            3058     10.7138E-15     14.3991E-15
            3039            3059     13.4107E-15     13.5745E-15
            3023            3059     13.4107E-15     13.5745E-15
            3022            3059     13.4107E-15     13.5745E-15
            3040            3059     13.4107E-15     13.5745E-15
            3024            3060     12.2160E-15     11.4786E-15
            3041            3060     12.2160E-15     11.4786E-15
            3040            3060     12.2160E-15     11.4786E-15
            3023            3060     12.2160E-15     11.4786E-15
            3024            3061     9.25483E-15     8.81554E-15
            3041            3061     9.25483E-15     8.81554E-15
            3025            3061     9.25483E-15     8.81554E-15
            3042            3061     9.25483E-15     8.81554E-15
            3025            3062     8.68168E-15     9.45257E-15
            3043            3062     8.68168E-15     9.45257E-15
            3042            3062     8.68168E-15     9.45257E-15
            3026            3062     8.68168E-15     9.45257E-15
            3026            3063     10.5212E-15     9.79606E-15
            3043            3063     10.5212E-15     9.79606E-15
            3044            3063     10.5212E-15     9.79606E-15
            3027            3063     10.5212E-15     9.79606E-15
            3027            3064     10.7690E-15     7.92901E-15
            3044            3064     10.7690E-15     7.92901E-15
            3028            3064     10.7690E-15     7.92901E-15
            3045            3064     10.7690E-15     7.92901E-15
            3028            3065     9.07405E-15     7.86849E-15
            3046            3065     9.07405E-15     7.86849E-15
            3045            3065     9.07405E-15     7.86849E-15
            3029            3065     9.07405E-15     7.86849E-15
            3046            3066     10.5249E-15     11.8853E-15
            3047            3066     10.5249E-15     11.8853E-15
            3030            3066     10.5249E-15     11.8853E-15
            3029            3066     10.5249E-15     11.8853E-15
            3031            3067     9.46867E-15     10.7999E-15
            3048            3067     9.46867E-15     10.7999E-15
            3030            3067     9.46867E-15     10.7999E-15
            3047            3067     9.46867E-15     10.7999E-15
            3031            3068     9.39247E-15     8.43262E-15
            3032            3068     9.39247E-15     8.43262E-15
            3048            3068     9.39247E-15     8.43262E-15
            3049            3068     9.39247E-15     8.43262E-15
            3032            3069     9.28860E-15     6.16015E-15
            3033            3069     9.28860E-15     6.16015E-15
            3050            3069     9.28860E-15     6.16015E-15
            3049            3069     9.28860E-15     6.16015E-15
            3051            3070     10.2205E-15     8.34354E-15
            3050            3070     10.2205E-15     8.34354E-15
            3034            3070     10.2205E-15     8.34354E-15
            3033            3070     10.2205E-15     8.34354E-15
            3034            3071     12.0638E-15     9.89206E-15
            3052            3071     12.0638E-15     9.89206E-15
            3035            3071     12.0638E-15     9.89206E-15
            3051            3071     12.0638E-15     9.89206E-15
            3052            3072     10.7132E-15     11.8270E-15
            3036            3072     10.7132E-15     11.8270E-15
            3035            3072     10.7132E-15     11.8270E-15
            3053            3072     10.7132E-15     11.8270E-15
            3036            3073     11.3120E-15     15.5894E-15
            3037            3073     11.3120E-15     15.5894E-15
            3053            3073     11.3120E-15     15.5894E-15
            3054            3073     11.3120E-15     15.5894E-15
            3037            3074     11.3572E-15     12.6542E-15
            3038            3074     11.3572E-15     12.6542E-15
            3055            3074     11.3572E-15     12.6542E-15
            3054            3074     11.3572E-15     12.6542E-15
            3056            3075     25.0359E-03     26.1804E-03
            3074            3075     25.0359E-03     26.1804E-03
            3073            3075     25.0359E-03     26.1804E-03
            3057            3075     25.0359E-03     26.1804E-03
            3074            3076     28.0526E-03     30.1768E-03
            3057            3076     28.0526E-03     30.1768E-03
            3075            3076     28.0526E-03     30.1768E-03
            3058            3076     28.0526E-03     30.1768E-03
            3075            3077     33.1701E-03     35.7191E-03
            3076            3077     33.1701E-03     35.7191E-03
            3059            3077     33.1701E-03     35.7191E-03
            3058            3077     33.1701E-03     35.7191E-03
            3076            3078     39.6242E-03     42.3037E-03
            3077            3078     39.6242E-03     42.3037E-03
            3060            3078     39.6242E-03     42.3037E-03
            3059            3078     39.6242E-03     42.3037E-03
            3078            3079     46.8320E-03     49.5288E-03
            3060            3079     46.8320E-03     49.5288E-03
            3061            3079     46.8320E-03     49.5288E-03
            3077            3079     46.8320E-03     49.5288E-03
            3079            3080     54.4668E-03     57.1319E-03
            3061            3080     54.4668E-03     57.1319E-03
            3078            3080     54.4668E-03     57.1319E-03
            3062            3080     54.4668E-03     57.1319E-03
            3062            3081     62.3300E-03     65.0026E-03
            3080            3081     62.3300E-03     65.0026E-03
            3079            3081     62.3300E-03     65.0026E-03
            3063            3081     62.3300E-03     65.0026E-03
            3080            3082     70.3879E-03     72.9956E-03
            3063            3082     70.3879E-03     72.9956E-03
            3064            3082     70.3879E-03     72.9956E-03
            3081            3082     70.3879E-03     72.9956E-03
            3082            3083     78.4950E-03     81.1613E-03
            3065            3083     78.4950E-03     81.1613E-03
            3064            3083     78.4950E-03     81.1613E-03
            3081            3083     78.4950E-03     81.1613E-03
            3065            3084     86.7688E-03     89.3117E-03
            3082            3084     86.7688E-03     89.3117E-03
            3083            3084     86.7688E-03     89.3117E-03
            3066            3084     86.7688E-03     89.3117E-03
            3066            3085     94.9727E-03     97.6631E-03
            3083            3085     94.9727E-03     97.6631E-03
            3084            3085     94.9727E-03     97.6631E-03
            3067            3085     94.9727E-03     97.6631E-03
            3068            3086     103.388E-03     105.865E-03
            3085            3086     103.388E-03     105.865E-03
            3084            3086     103.388E-03     105.865E-03
            3067            3086     103.388E-03     105.865E-03
            3085            3087     111.671E-03     114.370E-03
            3069            3087     111.671E-03     114.370E-03
            3086            3087     111.671E-03     114.370E-03
            3068            3087     111.671E-03     114.370E-03
            3070            3088     120.004E-03     122.503E-03
            3087            3088     120.004E-03     122.503E-03
            3069            3088     120.004E-03     122.503E-03
            3086            3088     120.004E-03     122.503E-03
            3070            3089     128.874E-03     131.304E-03
            3087            3089     128.874E-03     131.304E-03
            3088            3089     128.874E-03     131.304E-03
            3071            3089     128.874E-03     131.304E-03
            3088            3090     136.093E-03     138.890E-03
            3089            3090     136.093E-03     138.890E-03
            3072            3090     136.093E-03     138.890E-03
            3071            3090     136.093E-03     138.890E-03
            3091            3091     23.7529E-03     23.3091E-03
            3074            3091     23.7529E-03     23.3091E-03
            3090            3091     23.7529E-03     23.3091E-03
            3073            3091     23.7529E-03     23.3091E-03
            3074            3092     27.5188E-03     25.0513E-03
            3075            3092     27.5188E-03     25.0513E-03
            3092            3092     27.5188E-03     25.0513E-03
            3091            3092     27.5188E-03     25.0513E-03
            3092            3093     31.6636E-03     28.3463E-03
            3075            3093     31.6636E-03     28.3463E-03
            3093            3093     31.6636E-03     28.3463E-03
            3076            3093     31.6636E-03     28.3463E-03
            3093            3094     36.3587E-03     32.8082E-03
            3076            3094     36.3587E-03     32.8082E-03
            3077            3094     36.3587E-03     32.8082E-03
            3094            3094     36.3587E-03     32.8082E-03
            3077            3095     41.4901E-03     37.8430E-03
            3078            3095     41.4901E-03     37.8430E-03
            3095            3095     41.4901E-03     37.8430E-03
            3094            3095     41.4901E-03     37.8430E-03
            3095            3096     46.9927E-03     43.2987E-03
            3096            3096     46.9927E-03     43.2987E-03
            3079            3096     46.9927E-03     43.2987E-03
            3078            3096     46.9927E-03     43.2987E-03
            3079            3097     52.6885E-03     48.9958E-03
            3096            3097     52.6885E-03     48.9958E-03
            3097            3097     52.6885E-03     48.9958E-03
            3080            3097     52.6885E-03     48.9958E-03
            3097            3098     58.5867E-03     54.8263E-03
            3080            3098     58.5867E-03     54.8263E-03
            3081            3098     58.5867E-03     54.8263E-03
            3098            3098     58.5867E-03     54.8263E-03
            3098            3099     64.5266E-03     60.8004E-03
            3082            3099     64.5266E-03     60.8004E-03
            3099            3099     64.5266E-03     60.8004E-03
            3081            3099     64.5266E-03     60.8004E-03
            3100            3100     70.6082E-03     66.7714E-03
            3099            3100     70.6082E-03     66.7714E-03
            3083            3100     70.6082E-03     66.7714E-03
            3082            3100     70.6082E-03     66.7714E-03
            3100            3101     76.6827E-03     72.9300E-03
            3101            3101     76.6827E-03     72.9300E-03
            3084            3101     76.6827E-03     72.9300E-03
            3083            3101     76.6827E-03     72.9300E-03
            3084            3102     83.0813E-03     79.1337E-03
            3101            3102     83.0813E-03     79.1337E-03
            3102            3102     83.0813E-03     79.1337E-03
            3085            3102     83.0813E-03     79.1337E-03
            3085            3103     90.0054E-03     86.2009E-03
            3103            3103     90.0054E-03     86.2009E-03
            3086            3103     90.0054E-03     86.2009E-03
            3102            3103     90.0054E-03     86.2009E-03
            3086            3104     98.1196E-03     94.1937E-03
            3103            3104     98.1196E-03     94.1937E-03
            3087            3104     98.1196E-03     94.1937E-03
            3104            3104     98.1196E-03     94.1937E-03
            3088            3105     110.599E-03     107.283E-03
            3087            3105     110.599E-03     107.283E-03
            3104            3105     110.599E-03     107.283E-03
            3105            3105     110.599E-03     107.283E-03
            3105            3106     127.291E-03     126.884E-03
            3088            3106     127.291E-03     126.884E-03
            3089            3106     127.291E-03     126.884E-03
            3106            3106     127.291E-03     126.884E-03
            3108            3107     20.4243E-03     22.9933E-03
            3107            3107     20.4243E-03     22.9933E-03
            3091            3107     20.4243E-03     22.9933E-03
            3090            3107     20.4243E-03     22.9933E-03
            3109            3108     21.1494E-03     24.8553E-03
            3108            3108     21.1494E-03     24.8553E-03
            3091            3108     21.1494E-03     24.8553E-03
            3092            3108     21.1494E-03     24.8553E-03
            3092            3109     22.7357E-03     27.4640E-03
            3109            3109     22.7357E-03     27.4640E-03
            3110            3109     22.7357E-03     27.4640E-03
            3093            3109     22.7357E-03     27.4640E-03
            3093            3110     24.9120E-03     30.6616E-03
            3094            3110     24.9120E-03     30.6616E-03
            3111            3110     24.9120E-03     30.6616E-03
            3110            3110     24.9120E-03     30.6616E-03
            3111            3111     27.5907E-03     34.1827E-03
            3112            3111     27.5907E-03     34.1827E-03
            3095            3111     27.5907E-03     34.1827E-03
            3094            3111     27.5907E-03     34.1827E-03
            3113            3112     30.7324E-03     37.8685E-03
            3096            3112     30.7324E-03     37.8685E-03
            3095            3112     30.7324E-03     37.8685E-03
            3112            3112     30.7324E-03     37.8685E-03
            3114            3113     34.1755E-03     41.6983E-03
            3096            3113     34.1755E-03     41.6983E-03
            3113            3113     34.1755E-03     41.6983E-03
            3097            3113     34.1755E-03     41.6983E-03
            3115            3114     37.8345E-03     45.6049E-03
            3098            3114     37.8345E-03     45.6049E-03
            3114            3114     37.8345E-03     45.6049E-03
            3097            3114     37.8345E-03     45.6049E-03
            3116            3115     41.6203E-03     49.5861E-03
            3098            3115     41.6203E-03     49.5861E-03
            3099            3115     41.6203E-03     49.5861E-03
            3115            3115     41.6203E-03     49.5861E-03
            3117            3116     45.4747E-03     53.5693E-03
            3100            3116     45.4747E-03     53.5693E-03
            3099            3116     45.4747E-03     53.5693E-03
            3116            3116     45.4747E-03     53.5693E-03
            3100            3117     49.4915E-03     57.6985E-03
            3118            3117     49.4915E-03     57.6985E-03
            3101            3117     49.4915E-03     57.6985E-03
            3117            3117     49.4915E-03     57.6985E-03
            3102            3118     53.7240E-03     62.0385E-03
            3118            3118     53.7240E-03     62.0385E-03
            3119            3118     53.7240E-03     62.0385E-03
            3101            3118     53.7240E-03     62.0385E-03
            3119            3119     59.1996E-03     67.5458E-03
            3120            3119     59.1996E-03     67.5458E-03
            3102            3119     59.1996E-03     67.5458E-03
            3103            3119     59.1996E-03     67.5458E-03
            3121            3120     66.9440E-03     75.4267E-03
            3120            3120     66.9440E-03     75.4267E-03
            3104            3120     66.9440E-03     75.4267E-03
            3103            3120     66.9440E-03     75.4267E-03
            3104            3121     82.1355E-03     90.7588E-03
            3122            3121     82.1355E-03     90.7588E-03
            3105            3121     82.1355E-03     90.7588E-03
            3121            3121     82.1355E-03     90.7588E-03
            3106            3122     115.769E-03     123.041E-03
            3122            3122     115.769E-03     123.041E-03
            3105            3122     115.769E-03     123.041E-03
            3123            3122     115.769E-03     123.041E-03
            3124            3123     24.9343E-03     23.4842E-03
            3107            3123     24.9343E-03     23.4842E-03
            3108            3123     24.9343E-03     23.4842E-03
            3125            3123     24.9343E-03     23.4842E-03
            3126            3124     24.8189E-03     26.0904E-03
            3125            3124     24.8189E-03     26.0904E-03
            3109            3124     24.8189E-03     26.0904E-03
            3108            3124     24.8189E-03     26.0904E-03
            3109            3125     26.0077E-03     28.6334E-03
            3126            3125     26.0077E-03     28.6334E-03
            3110            3125     26.0077E-03     28.6334E-03
            3127            3125     26.0077E-03     28.6334E-03
            3110            3126     28.0812E-03     31.5547E-03
            3111            3126     28.0812E-03     31.5547E-03
            3128            3126     28.0812E-03     31.5547E-03
            3127            3126     28.0812E-03     31.5547E-03
            3128            3127     30.6864E-03     34.7978E-03
            3111            3127     30.6864E-03     34.7978E-03
            3112            3127     30.6864E-03     34.7978E-03
            3129            3127     30.6864E-03     34.7978E-03
            3112            3128     33.7706E-03     38.2714E-03
            3130            3128     33.7706E-03     38.2714E-03
            3113            3128     33.7706E-03     38.2714E-03
            3129            3128     33.7706E-03     38.2714E-03
            3113            3129     37.1941E-03     41.9670E-03
            3114            3129     37.1941E-03     41.9670E-03
            3130            3129     37.1941E-03     41.9670E-03
            3131            3129     37.1941E-03     41.9670E-03
            3115            3130     40.8537E-03     45.8329E-03
            3114            3130     40.8537E-03     45.8329E-03
            3132            3130     40.8537E-03     45.8329E-03
            3131            3130     40.8537E-03     45.8329E-03
            3132            3131     44.6922E-03     49.8203E-03
            3133            3131     44.6922E-03     49.8203E-03
            3115            3131     44.6922E-03     49.8203E-03
            3116            3131     44.6922E-03     49.8203E-03
            3117            3132     48.6802E-03     53.9379E-03
            3134            3132     48.6802E-03     53.9379E-03
            3116            3132     48.6802E-03     53.9379E-03
            3133            3132     48.6802E-03     53.9379E-03
            3118            3133     52.7689E-03     58.1697E-03
            3134            3133     52.7689E-03     58.1697E-03
            3117            3133     52.7689E-03     58.1697E-03
            3135            3133     52.7689E-03     58.1697E-03
            3136            3134     57.1464E-03     62.6874E-03
            3135            3134     57.1464E-03     62.6874E-03
            3118            3134     57.1464E-03     62.6874E-03
            3119            3134     57.1464E-03     62.6874E-03
            3136            3135     61.9726E-03     67.7430E-03
            3137            3135     61.9726E-03     67.7430E-03
            3119            3135     61.9726E-03     67.7430E-03
            3120            3135     61.9726E-03     67.7430E-03
            3137            3136     68.8733E-03     74.4041E-03
            3120            3136     68.8733E-03     74.4041E-03
            3138            3136     68.8733E-03     74.4041E-03
            3121            3136     68.8733E-03     74.4041E-03
            3139            3137     82.9857E-03     86.7706E-03
            3122            3137     82.9857E-03     86.7706E-03
            3121            3137     82.9857E-03     86.7706E-03
            3138            3137     82.9857E-03     86.7706E-03
            3140            3138     105.894E-03     106.544E-03
            3139            3138     105.894E-03     106.544E-03
            3122            3138     105.894E-03     106.544E-03
            3123            3138     105.894E-03     106.544E-03
            3125            3139     27.9598E-03     25.2358E-03
            3142            3139     27.9598E-03     25.2358E-03
            3124            3139     27.9598E-03     25.2358E-03
            3141            3139     27.9598E-03     25.2358E-03
            3143            3140     28.2972E-03     27.2999E-03
            3125            3140     28.2972E-03     27.2999E-03
            3126            3140     28.2972E-03     27.2999E-03
            3142            3140     28.2972E-03     27.2999E-03
            3143            3141     29.1933E-03     30.0246E-03
            3144            3141     29.1933E-03     30.0246E-03
            3126            3141     29.1933E-03     30.0246E-03
            3127            3141     29.1933E-03     30.0246E-03
            3127            3142     31.0165E-03     32.6582E-03
            3145            3142     31.0165E-03     32.6582E-03
            3128            3142     31.0165E-03     32.6582E-03
            3144            3142     31.0165E-03     32.6582E-03
            3145            3143     33.6162E-03     35.5026E-03
            3129            3143     33.6162E-03     35.5026E-03
            3128            3143     33.6162E-03     35.5026E-03
            3146            3143     33.6162E-03     35.5026E-03
            3146            3144     36.6476E-03     38.7231E-03
            3130            3144     36.6476E-03     38.7231E-03
            3147            3144     36.6476E-03     38.7231E-03
            3129            3144     36.6476E-03     38.7231E-03
            3147            3145     40.0103E-03     42.2280E-03
            3130            3145     40.0103E-03     42.2280E-03
            3131            3145     40.0103E-03     42.2280E-03
            3148            3145     40.0103E-03     42.2280E-03
            3149            3146     43.6571E-03     45.9847E-03
            3132            3146     43.6571E-03     45.9847E-03
            3148            3146     43.6571E-03     45.9847E-03
            3131            3146     43.6571E-03     45.9847E-03
            3149            3147     47.5401E-03     49.9619E-03
            3133            3147     47.5401E-03     49.9619E-03
            3150            3147     47.5401E-03     49.9619E-03
            3132            3147     47.5401E-03     49.9619E-03
            3134            3148     51.6385E-03     54.1597E-03
            3133            3148     51.6385E-03     54.1597E-03
            3150            3148     51.6385E-03     54.1597E-03
            3151            3148     51.6385E-03     54.1597E-03
            3152            3149     55.9024E-03     58.5273E-03
            3151            3149     55.9024E-03     58.5273E-03
            3134            3149     55.9024E-03     58.5273E-03
            3135            3149     55.9024E-03     58.5273E-03
            3153            3150     60.3107E-03     63.1103E-03
            3152            3150     60.3107E-03     63.1103E-03
            3136            3150     60.3107E-03     63.1103E-03
            3135            3150     60.3107E-03     63.1103E-03
            3136            3151     64.4976E-03     67.5654E-03
            3153            3151     64.4976E-03     67.5654E-03
            3137            3151     64.4976E-03     67.5654E-03
            3154            3151     64.4976E-03     67.5654E-03
            3155            3152     69.2028E-03     72.2119E-03
            3154            3152     69.2028E-03     72.2119E-03
            3138            3152     69.2028E-03     72.2119E-03
            3137            3152     69.2028E-03     72.2119E-03
            3156            3153     75.5481E-03     77.7353E-03
            3138            3153     75.5481E-03     77.7353E-03
            3139            3153     75.5481E-03     77.7353E-03
            3155            3153     75.5481E-03     77.7353E-03
            3157            3154     87.5838E-03     89.6383E-03
            3140            3154     87.5838E-03     89.6383E-03
            3156            3154     87.5838E-03     89.6383E-03
            3139            3154     87.5838E-03     89.6383E-03
            3141            3155     30.5168E-03     27.7590E-03
            3158            3155     30.5168E-03     27.7590E-03
            3142            3155     30.5168E-03     27.7590E-03
            3159            3155     30.5168E-03     27.7590E-03
            3159            3156     30.8627E-03     29.7758E-03
            3142            3156     30.8627E-03     29.7758E-03
            3160            3156     30.8627E-03     29.7758E-03
            3143            3156     30.8627E-03     29.7758E-03
            3160            3157     31.8660E-03     31.7930E-03
            3143            3157     31.8660E-03     31.7930E-03
            3144            3157     31.8660E-03     31.7930E-03
            3161            3157     31.8660E-03     31.7930E-03
            3144            3158     33.8510E-03     33.8377E-03
            3162            3158     33.8510E-03     33.8377E-03
            3161            3158     33.8510E-03     33.8377E-03
            3145            3158     33.8510E-03     33.8377E-03
            3145            3159     36.4281E-03     36.3139E-03
            3163            3159     36.4281E-03     36.3139E-03
            3146            3159     36.4281E-03     36.3139E-03
            3162            3159     36.4281E-03     36.3139E-03
            3164            3160     39.3622E-03     39.2047E-03
            3146            3160     39.3622E-03     39.2047E-03
            3147            3160     39.3622E-03     39.2047E-03
            3163            3160     39.3622E-03     39.2047E-03
            3165            3161     42.6170E-03     42.4304E-03
            3164            3161     42.6170E-03     42.4304E-03
            3147            3161     42.6170E-03     42.4304E-03
            3148            3161     42.6170E-03     42.4304E-03
            3166            3162     46.1420E-03     45.9506E-03
            3165            3162     46.1420E-03     45.9506E-03
            3148            3162     46.1420E-03     45.9506E-03
            3149            3162     46.1420E-03     45.9506E-03
            3166            3163     49.9362E-03     49.7434E-03
            3150            3163     49.9362E-03     49.7434E-03
            3149            3163     49.9362E-03     49.7434E-03
            3167            3163     49.9362E-03     49.7434E-03
            3167            3164     53.9454E-03     53.7611E-03
            3151            3164     53.9454E-03     53.7611E-03
            3168            3164     53.9454E-03     53.7611E-03
            3150            3164     53.9454E-03     53.7611E-03
            3168            3165     58.1694E-03     58.0144E-03
            3151            3165     58.1694E-03     58.0144E-03
            3152            3165     58.1694E-03     58.0144E-03
            3169            3165     58.1694E-03     58.0144E-03
            3169            3166     62.1706E-03     62.1398E-03
            3170            3166     62.1706E-03     62.1398E-03
            3153            3166     62.1706E-03     62.1398E-03
            3152            3166     62.1706E-03     62.1398E-03
            3153            3167     65.8172E-03     65.9016E-03
            3170            3167     65.8172E-03     65.9016E-03
            3154            3167     65.8172E-03     65.9016E-03
            3171            3167     65.8172E-03     65.9016E-03
            3172            3168     66.5446E-03     67.5125E-03
            3155            3168     66.5446E-03     67.5125E-03
            3154            3168     66.5446E-03     67.5125E-03
            3171            3168     66.5446E-03     67.5125E-03
            3173            3169     64.3058E-03     66.1447E-03
            3155            3169     64.3058E-03     66.1447E-03
            3156            3169     64.3058E-03     66.1447E-03
            3172            3169     64.3058E-03     66.1447E-03
            3156            3170     70.3999E-03     70.4014E-03
            3174            3170     70.3999E-03     70.4014E-03
            3157            3170     70.3999E-03     70.4014E-03
            3173            3170     70.3999E-03     70.4014E-03
            3175            3171     32.5592E-03     31.8531E-03
            3158            3171     32.5592E-03     31.8531E-03
            3159            3171     32.5592E-03     31.8531E-03
            3176            3171     32.5592E-03     31.8531E-03
            3159            3172     32.6277E-03     32.9966E-03
            3177            3172     32.6277E-03     32.9966E-03
            3176            3172     32.6277E-03     32.9966E-03
            3160            3172     32.6277E-03     32.9966E-03
            3178            3173     34.3753E-03     33.6631E-03
            3161            3173     34.3753E-03     33.6631E-03
            3177            3173     34.3753E-03     33.6631E-03
            3160            3173     34.3753E-03     33.6631E-03
            3162            3174     36.6900E-03     35.1314E-03
            3161            3174     36.6900E-03     35.1314E-03
            3178            3174     36.6900E-03     35.1314E-03
            3179            3174     36.6900E-03     35.1314E-03
            3163            3175     39.1830E-03     37.2643E-03
            3179            3175     39.1830E-03     37.2643E-03
            3180            3175     39.1830E-03     37.2643E-03
            3162            3175     39.1830E-03     37.2643E-03
            3163            3176     41.9869E-03     39.7709E-03
            3180            3176     41.9869E-03     39.7709E-03
            3164            3176     41.9869E-03     39.7709E-03
            3181            3176     41.9869E-03     39.7709E-03
            3164            3177     45.0402E-03     42.6235E-03
            3165            3177     45.0402E-03     42.6235E-03
            3182            3177     45.0402E-03     42.6235E-03
            3181            3177     45.0402E-03     42.6235E-03
            3182            3178     48.3220E-03     45.7352E-03
            3166            3178     48.3220E-03     45.7352E-03
            3183            3178     48.3220E-03     45.7352E-03
            3165            3178     48.3220E-03     45.7352E-03
            3166            3179     51.7936E-03     49.0684E-03
            3184            3179     51.7936E-03     49.0684E-03
            3167            3179     51.7936E-03     49.0684E-03
            3183            3179     51.7936E-03     49.0684E-03
            3167            3180     55.4350E-03     52.5770E-03
            3168            3180     55.4350E-03     52.5770E-03
            3185            3180     55.4350E-03     52.5770E-03
            3184            3180     55.4350E-03     52.5770E-03
            3169            3181     59.0474E-03     56.0868E-03
            3185            3181     59.0474E-03     56.0868E-03
            3186            3181     59.0474E-03     56.0868E-03
            3168            3181     59.0474E-03     56.0868E-03
            3170            3182     62.4469E-03     59.3732E-03
            3186            3182     62.4469E-03     59.3732E-03
            3187            3182     62.4469E-03     59.3732E-03
            3169            3182     62.4469E-03     59.3732E-03
            3187            3183     64.4526E-03     61.4792E-03
            3188            3183     64.4526E-03     61.4792E-03
            3171            3183     64.4526E-03     61.4792E-03
            3170            3183     64.4526E-03     61.4792E-03
            3188            3184     63.4024E-03     60.9196E-03
            3172            3184     63.4024E-03     60.9196E-03
            3171            3184     63.4024E-03     60.9196E-03
            3189            3184     63.4024E-03     60.9196E-03
            3172            3185     55.1807E-03     54.1378E-03
            3173            3185     55.1807E-03     54.1378E-03
            3190            3185     55.1807E-03     54.1378E-03
            3189            3185     55.1807E-03     54.1378E-03
            3174            3186     53.1578E-03     52.4239E-03
            3190            3186     53.1578E-03     52.4239E-03
            3173            3186     53.1578E-03     52.4239E-03
            3191            3186     53.1578E-03     52.4239E-03
            3192            3187     33.2310E-03     36.2374E-03
            3176            3187     33.2310E-03     36.2374E-03
            3193            3187     33.2310E-03     36.2374E-03
            3175            3187     33.2310E-03     36.2374E-03
            3193            3188     35.0868E-03     35.1640E-03
            3176            3188     35.0868E-03     35.1640E-03
            3194            3188     35.0868E-03     35.1640E-03
            3177            3188     35.0868E-03     35.1640E-03
            3178            3189     37.3221E-03     35.4069E-03
            3195            3189     37.3221E-03     35.4069E-03
            3177            3189     37.3221E-03     35.4069E-03
            3194            3189     37.3221E-03     35.4069E-03
            3178            3190     39.5630E-03     36.6698E-03
            3179            3190     39.5630E-03     36.6698E-03
            3196            3190     39.5630E-03     36.6698E-03
            3195            3190     39.5630E-03     36.6698E-03
            3196            3191     41.9682E-03     38.4302E-03
            3180            3191     41.9682E-03     38.4302E-03
            3197            3191     41.9682E-03     38.4302E-03
            3179            3191     41.9682E-03     38.4302E-03
            3181            3192     44.6073E-03     40.5658E-03
            3198            3192     44.6073E-03     40.5658E-03
            3197            3192     44.6073E-03     40.5658E-03
            3180            3192     44.6073E-03     40.5658E-03
            3181            3193     47.4098E-03     42.9593E-03
            3198            3193     47.4098E-03     42.9593E-03
            3182            3193     47.4098E-03     42.9593E-03
            3199            3193     47.4098E-03     42.9593E-03
            3182            3194     50.3478E-03     45.5424E-03
            3200            3194     50.3478E-03     45.5424E-03
            3183            3194     50.3478E-03     45.5424E-03
            3199            3194     50.3478E-03     45.5424E-03
            3184            3195     53.3400E-03     48.2051E-03
            3200            3195     53.3400E-03     48.2051E-03
            3183            3195     53.3400E-03     48.2051E-03
            3201            3195     53.3400E-03     48.2051E-03
            3202            3196     56.2531E-03     50.8354E-03
            3201            3196     56.2531E-03     50.8354E-03
            3184            3196     56.2531E-03     50.8354E-03
            3185            3196     56.2531E-03     50.8354E-03
            3202            3197     58.9034E-03     53.1445E-03
            3185            3197     58.9034E-03     53.1445E-03
            3186            3197     58.9034E-03     53.1445E-03
            3203            3197     58.9034E-03     53.1445E-03
            3203            3198     60.8335E-03     54.7675E-03
            3187            3198     60.8335E-03     54.7675E-03
            3204            3198     60.8335E-03     54.7675E-03
            3186            3198     60.8335E-03     54.7675E-03
            3204            3199     61.1053E-03     54.6768E-03
            3187            3199     61.1053E-03     54.6768E-03
            3205            3199     61.1053E-03     54.6768E-03
            3188            3199     61.1053E-03     54.6768E-03
            3188            3200     58.5426E-03     51.6087E-03
            3189            3200     58.5426E-03     51.6087E-03
            3205            3200     58.5426E-03     51.6087E-03
            3206            3200     58.5426E-03     51.6087E-03
            3190            3201     49.1337E-03     42.5748E-03
            3207            3201     49.1337E-03     42.5748E-03
            3189            3201     49.1337E-03     42.5748E-03
            3206            3201     49.1337E-03     42.5748E-03
            3207            3202     41.3334E-03     40.0188E-03
            3208            3202     41.3334E-03     40.0188E-03
            3190            3202     41.3334E-03     40.0188E-03
            3191            3202     41.3334E-03     40.0188E-03
            3209            3203     18.2310E-03     20.3209E-03
            3193            3203     18.2310E-03     20.3209E-03
            3210            3203     18.2310E-03     20.3209E-03
            3192            3203     18.2310E-03     20.3209E-03
            3194            3204     19.9612E-03     19.6481E-03
            3193            3204     19.9612E-03     19.6481E-03
            3210            3204     19.9612E-03     19.6481E-03
            3211            3204     19.9612E-03     19.6481E-03
            3194            3205     21.0558E-03     19.8707E-03
            3212            3205     21.0558E-03     19.8707E-03
            3211            3205     21.0558E-03     19.8707E-03
            3195            3205     21.0558E-03     19.8707E-03
            3213            3206     22.2419E-03     20.6417E-03
            3212            3206     22.2419E-03     20.6417E-03
            3196            3206     22.2419E-03     20.6417E-03
            3195            3206     22.2419E-03     20.6417E-03
            3196            3207     23.5433E-03     21.5389E-03
            3197            3207     23.5433E-03     21.5389E-03
            3213            3207     23.5433E-03     21.5389E-03
            3214            3207     23.5433E-03     21.5389E-03
            3197            3208     24.9677E-03     22.6774E-03
            3215            3208     24.9677E-03     22.6774E-03
            3214            3208     24.9677E-03     22.6774E-03
            3198            3208     24.9677E-03     22.6774E-03
            3199            3209     26.4729E-03     23.9016E-03
            3215            3209     26.4729E-03     23.9016E-03
            3198            3209     26.4729E-03     23.9016E-03
            3216            3209     26.4729E-03     23.9016E-03
            3217            3210     28.0237E-03     25.2354E-03
            3199            3210     28.0237E-03     25.2354E-03
            3200            3210     28.0237E-03     25.2354E-03
            3216            3210     28.0237E-03     25.2354E-03
            3218            3211     29.5674E-03     26.5553E-03
            3201            3211     29.5674E-03     26.5553E-03
            3217            3211     29.5674E-03     26.5553E-03
            3200            3211     29.5674E-03     26.5553E-03
            3201            3212     31.0083E-03     27.8017E-03
            3218            3212     31.0083E-03     27.8017E-03
            3202            3212     31.0083E-03     27.8017E-03
            3219            3212     31.0083E-03     27.8017E-03
            3219            3213     32.2403E-03     28.8209E-03
            3203            3213     32.2403E-03     28.8209E-03
            3202            3213     32.2403E-03     28.8209E-03
            3220            3213     32.2403E-03     28.8209E-03
            3204            3214     32.9235E-03     29.2638E-03
            3220            3214     32.9235E-03     29.2638E-03
            3203            3214     32.9235E-03     29.2638E-03
            3221            3214     32.9235E-03     29.2638E-03
            3204            3215     32.8927E-03     28.8979E-03
            3221            3215     32.8927E-03     28.8979E-03
            3205            3215     32.8927E-03     28.8979E-03
            3222            3215     32.8927E-03     28.8979E-03
            3223            3216     31.0966E-03     26.6652E-03
            3222            3216     31.0966E-03     26.6652E-03
            3205            3216     31.0966E-03     26.6652E-03
            3206            3216     31.0966E-03     26.6652E-03
            3224            3217     27.2658E-03     22.3016E-03
            3207            3217     27.2658E-03     22.3016E-03
            3223            3217     27.2658E-03     22.3016E-03
            3206            3217     27.2658E-03     22.3016E-03
            3224            3218     22.9217E-03     22.1652E-03
            3208            3218     22.9217E-03     22.1652E-03
            3207            3218     22.9217E-03     22.1652E-03
            3225            3218     22.9217E-03     22.1652E-03
            3231            3219     6.14576E-15     5.31307E-15
            3232            3219     6.14576E-15     5.31307E-15
            3226            3219     6.14576E-15     5.31307E-15
            3227            3219     6.14576E-15     5.31307E-15
            3228            3220     7.21156E-15     7.65182E-15
            3227            3220     7.21156E-15     7.65182E-15
            3232            3220     7.21156E-15     7.65182E-15
            3233            3220     7.21156E-15     7.65182E-15
            3233            3221     11.0186E-15     12.0269E-15
            3229            3221     11.0186E-15     12.0269E-15
            3234            3221     11.0186E-15     12.0269E-15
            3228            3221     11.0186E-15     12.0269E-15
            3229            3222     11.2136E-15     11.2010E-15
            3234            3222     11.2136E-15     11.2010E-15
            3235            3222     11.2136E-15     11.2010E-15
            3230            3222     11.2136E-15     11.2010E-15
            3237            3223     7.96968E-15     7.60321E-15
            3232            3223     7.96968E-15     7.60321E-15
            3231            3223     7.96968E-15     7.60321E-15
            3236            3223     7.96968E-15     7.60321E-15
            3237            3224     8.47851E-15     9.02163E-15
            3238            3224     8.47851E-15     9.02163E-15
            3232            3224     8.47851E-15     9.02163E-15
            3233            3224     8.47851E-15     9.02163E-15
            3233            3225     10.7849E-15     12.3536E-15
            3239            3225     10.7849E-15     12.3536E-15
            3234            3225     10.7849E-15     12.3536E-15
            3238            3225     10.7849E-15     12.3536E-15
            3239            3226     13.1732E-15     13.5584E-15
            3240            3226     13.1732E-15     13.5584E-15
            3234            3226     13.1732E-15     13.5584E-15
            3235            3226     13.1732E-15     13.5584E-15
            3236            3227     9.17870E-15     9.02505E-15
            3241            3227     9.17870E-15     9.02505E-15
            3237            3227     9.17870E-15     9.02505E-15
            3242            3227     9.17870E-15     9.02505E-15
            3237            3228     9.25544E-15     9.01352E-15
            3242            3228     9.25544E-15     9.01352E-15
            3238            3228     9.25544E-15     9.01352E-15
            3243            3228     9.25544E-15     9.01352E-15
            3238            3229     7.71819E-15     8.15490E-15
            3239            3229     7.71819E-15     8.15490E-15
            3244            3229     7.71819E-15     8.15490E-15
            3243            3229     7.71819E-15     8.15490E-15
            3240            3230     9.85057E-15     9.75607E-15
            3244            3230     9.85057E-15     9.75607E-15
            3239            3230     9.85057E-15     9.75607E-15
            3245            3230     9.85057E-15     9.75607E-15
            3242            3231     9.40559E-15     9.45319E-15
            3246            3231     9.40559E-15     9.45319E-15
            3241            3231     9.40559E-15     9.45319E-15
            3247            3231     9.40559E-15     9.45319E-15
            3248            3232     11.2558E-15     10.8729E-15
            3247            3232     11.2558E-15     10.8729E-15
            3243            3232     11.2558E-15     10.8729E-15
            3242            3232     11.2558E-15     10.8729E-15
            3248            3233     10.1658E-15     9.66055E-15
            3244            3233     10.1658E-15     9.66055E-15
            3243            3233     10.1658E-15     9.66055E-15
            3249            3233     10.1658E-15     9.66055E-15
            3250            3234     8.78115E-15     8.78689E-15
            3245            3234     8.78115E-15     8.78689E-15
            3249            3234     8.78115E-15     8.78689E-15
            3244            3234     8.78115E-15     8.78689E-15


  Minimum                            2.79129E-15     2.62791E-15
      At Element                            3029            3029
            Node                            3049            3049

  Maximum                            249.814E-03     246.398E-03
      At Element                            2820            2820
            Node                             396             396

           Total                         705.978         725.258


Field Output reported at element nodes for region: F100-1.Region_2
   Computation algorithm: EXTRAPOLATE_COMPUTE_AVERAGE
   Averaged at nodes
   Averaging regions: ODB_REGIONS

   Element Label      Node Label         S.Mises         S.Mises
                                          @Loc 1          @Loc 2
-----------------------------------------------------------------
            2133               2     18.0564E-03     18.0486E-03
             881               2     18.0564E-03     18.0486E-03
            1018               3     172.677E-03     164.708E-03
            2235               3     172.677E-03     164.708E-03
            1003               5     18.0564E-03     18.0486E-03
             896               5     18.0564E-03     18.0486E-03
            1015               6     3.88401E-15     6.04596E-15
             893               9     3.73321E-15     2.39893E-15
             998              11     172.677E-03     164.708E-03
            2326              11     172.677E-03     164.708E-03
             883              13     22.5403E-03     22.5333E-03
             898              13     22.5403E-03     22.5333E-03
            2131              13     22.5403E-03     22.5333E-03
            1001              13     22.5403E-03     22.5333E-03
             895              14     6.50206E-15     6.81204E-15
            1013              14     6.50206E-15     6.81204E-15
            1000              15     56.9472E-03     54.3497E-03
            1016              15     56.9472E-03     54.3497E-03
            2328              15     56.9472E-03     54.3497E-03
            2233              15     56.9472E-03     54.3497E-03
            1030              16     214.036E-03     205.946E-03
            2903              16     214.036E-03     205.946E-03
            2340              17     61.0215E-03     60.9004E-03
            1028              17     61.0215E-03     60.9004E-03
            2238              17     61.0215E-03     60.9004E-03
            2901              17     61.0215E-03     60.9004E-03
            2338              20     214.036E-03     205.946E-03
            2236              20     214.036E-03     205.946E-03
            2343              21     158.960E-03     154.676E-03
            2915              21     158.960E-03     154.676E-03
            2248              23     158.960E-03     154.676E-03
            2941              23     158.960E-03     154.676E-03
            2250              25     127.099E-03     125.682E-03
            2913              25     127.099E-03     125.682E-03
            2943              25     127.099E-03     125.682E-03
            2341              25     127.099E-03     125.682E-03
            2968              26     31.4658E-03     31.2441E-03
            2821              26     31.4658E-03     31.2441E-03
            2888              28     31.4658E-03     31.2441E-03
            2370              28     31.4658E-03     31.2441E-03
            2368              29     31.2994E-03     31.0765E-03
            2886              29     31.2994E-03     31.0765E-03
            2970              29     31.2994E-03     31.0765E-03
            2823              29     31.2994E-03     31.0765E-03
            2900              31     4.51705E-15     3.80207E-15
            2835              33     1.67444E-15     1.38789E-15
            2898              33     1.67444E-15     1.38789E-15
            2833              34     1.27508E-15     1.86128E-15
            2133              52     37.7512E-03     37.7430E-03
            2136              52     37.7512E-03     37.7430E-03
            2139              53     36.2366E-03     36.2162E-03
            2136              53     36.2366E-03     36.2162E-03
            2139              54     32.8639E-03     33.7060E-03
            2142              54     32.8639E-03     33.7060E-03
            2145              55     35.1687E-03     36.1064E-03
            2142              55     35.1687E-03     36.1064E-03
            2148              56     40.7510E-03     40.8440E-03
            2145              56     40.7510E-03     40.8440E-03
            2148              57     48.8797E-03     48.8544E-03
            2151              57     48.8797E-03     48.8544E-03
            2151              58     60.5512E-03     59.3434E-03
            2154              58     60.5512E-03     59.3434E-03
            2157              59     53.9597E-03     50.9137E-03
            2154              59     53.9597E-03     50.9137E-03
            2160              60     46.0688E-03     45.8996E-03
            2157              60     46.0688E-03     45.8996E-03
            2160              61     55.9807E-03     57.5856E-03
            2163              61     55.9807E-03     57.5856E-03
            2166              62     65.1662E-03     64.9774E-03
            2163              62     65.1662E-03     64.9774E-03
            2166              63     73.7645E-03     73.1987E-03
            2169              63     73.7645E-03     73.1987E-03
            2169              64     83.6683E-03     83.4160E-03
            2172              64     83.6683E-03     83.4160E-03
            2172              65     96.2587E-03     93.7458E-03
            2175              65     96.2587E-03     93.7458E-03
            2175              66     87.0343E-03     80.5746E-03
            2178              66     87.0343E-03     80.5746E-03
            2181              67     78.5887E-03     77.0058E-03
            2178              67     78.5887E-03     77.0058E-03
            2181              68     91.6052E-03     93.5743E-03
            2184              68     91.6052E-03     93.5743E-03
            2187              69     101.551E-03     101.166E-03
            2184              69     101.551E-03     101.166E-03
            2190              70     112.253E-03     112.668E-03
            2187              70     112.253E-03     112.668E-03
            2193              71     125.127E-03     121.650E-03
            2190              71     125.127E-03     121.650E-03
            2193              72     115.860E-03     105.976E-03
            2196              72     115.860E-03     105.976E-03
            2196              73     107.481E-03     104.492E-03
            2199              73     107.481E-03     104.492E-03
            2199              74     120.915E-03     122.973E-03
            2202              74     120.915E-03     122.973E-03
            2205              75     131.468E-03     130.639E-03
            2202              75     131.468E-03     130.639E-03
            2208              76     140.775E-03     139.581E-03
            2205              76     140.775E-03     139.581E-03
            2208              77     151.288E-03     151.326E-03
            2211              77     151.288E-03     151.326E-03
            2214              78     163.762E-03     158.969E-03
            2211              78     163.762E-03     158.969E-03
            2217              79     153.246E-03     140.400E-03
            2214              79     153.246E-03     140.400E-03
            2220              80     144.898E-03     141.042E-03
            2217              80     144.898E-03     141.042E-03
            2223              81     159.393E-03     162.107E-03
            2220              81     159.393E-03     162.107E-03
            2223              82     169.603E-03     168.834E-03
            2226              82     169.603E-03     168.834E-03
            2229              83     180.720E-03     181.833E-03
            2226              83     180.720E-03     181.833E-03
            2232              84     193.245E-03     187.655E-03
            2229              84     193.245E-03     187.655E-03
            2232              85     185.309E-03     178.182E-03
            2235              85     185.309E-03     178.182E-03
            1003             152     3.48372E-15     4.02512E-15
            1006             152     3.48372E-15     4.02512E-15
            1006             153     2.95366E-15     4.07063E-15
            1009             153     2.95366E-15     4.07063E-15
            1009             154     3.90509E-15     3.26108E-15
            1012             154     3.90509E-15     3.26108E-15
            1015             155     3.32065E-15     3.77821E-15
            1012             155     3.32065E-15     3.77821E-15
             884             180     4.48854E-15     3.67720E-15
             881             180     4.48854E-15     3.67720E-15
             884             181     3.13709E-15     2.89636E-15
             887             181     3.13709E-15     2.89636E-15
             890             182     3.91884E-15     4.83458E-15
             887             182     3.91884E-15     4.83458E-15
             893             183     3.60032E-15     3.40204E-15
             890             183     3.60032E-15     3.40204E-15
             899             196     37.7512E-03     37.7430E-03
             896             196     37.7512E-03     37.7430E-03
             902             197     36.2366E-03     36.2162E-03
             899             197     36.2366E-03     36.2162E-03
             902             198     32.8639E-03     33.7060E-03
             905             198     32.8639E-03     33.7060E-03
             905             199     35.1687E-03     36.1064E-03
             908             199     35.1687E-03     36.1064E-03
             908             200     40.7510E-03     40.8440E-03
             911             200     40.7510E-03     40.8440E-03
             914             201     48.8797E-03     48.8544E-03
             911             201     48.8797E-03     48.8544E-03
             914             202     60.5512E-03     59.3434E-03
             917             202     60.5512E-03     59.3434E-03
             917             203     53.9597E-03     50.9137E-03
             920             203     53.9597E-03     50.9137E-03
             920             204     46.0688E-03     45.8996E-03
             923             204     46.0688E-03     45.8996E-03
             923             205     55.9807E-03     57.5856E-03
             926             205     55.9807E-03     57.5856E-03
             929             206     65.1662E-03     64.9774E-03
             926             206     65.1662E-03     64.9774E-03
             929             207     73.7645E-03     73.1987E-03
             932             207     73.7645E-03     73.1987E-03
             932             208     83.6683E-03     83.4160E-03
             935             208     83.6683E-03     83.4160E-03
             938             209     96.2587E-03     93.7458E-03
             935             209     96.2587E-03     93.7458E-03
             938             210     87.0343E-03     80.5746E-03
             941             210     87.0343E-03     80.5746E-03
             941             211     78.5887E-03     77.0058E-03
             944             211     78.5887E-03     77.0058E-03
             944             212     91.6052E-03     93.5743E-03
             947             212     91.6052E-03     93.5743E-03
             950             213     101.551E-03     101.166E-03
             947             213     101.551E-03     101.166E-03
             953             214     112.253E-03     112.668E-03
             950             214     112.253E-03     112.668E-03
             953             215     125.127E-03     121.650E-03
             956             215     125.127E-03     121.650E-03
             956             216     115.860E-03     105.976E-03
             959             216     115.860E-03     105.976E-03
             959             217     107.481E-03     104.492E-03
             962             217     107.481E-03     104.492E-03
             962             218     120.915E-03     122.973E-03
             965             218     120.915E-03     122.973E-03
             965             219     131.468E-03     130.639E-03
             968             219     131.468E-03     130.639E-03
             968             220     140.775E-03     139.581E-03
             971             220     140.775E-03     139.581E-03
             974             221     151.288E-03     151.326E-03
             971             221     151.288E-03     151.326E-03
             974             222     163.762E-03     158.969E-03
             977             222     163.762E-03     158.969E-03
             977             223     153.246E-03     140.400E-03
             980             223     153.246E-03     140.400E-03
             980             224     144.898E-03     141.042E-03
             983             224     144.898E-03     141.042E-03
             983             225     159.393E-03     162.107E-03
             986             225     159.393E-03     162.107E-03
             986             226     169.603E-03     168.834E-03
             989             226     169.603E-03     168.834E-03
             989             227     180.720E-03     181.833E-03
             992             227     180.720E-03     181.833E-03
             995             228     193.245E-03     187.655E-03
             992             228     193.245E-03     187.655E-03
             995             229     185.309E-03     178.182E-03
             998             229     185.309E-03     178.182E-03
             882             268     21.0630E-03     21.0537E-03
            2133             268     21.0630E-03     21.0537E-03
             881             268     21.0630E-03     21.0537E-03
            2132             268     21.0630E-03     21.0537E-03
             883             269     23.3049E-03     23.2960E-03
            2132             269     23.3049E-03     23.2960E-03
             882             269     23.3049E-03     23.2960E-03
            2131             269     23.3049E-03     23.2960E-03
            1004             270     3.63280E-15     3.58706E-15
            1001             270     3.63280E-15     3.58706E-15
             886             270     3.63280E-15     3.58706E-15
             883             270     3.63280E-15     3.58706E-15
            1004             271     2.75284E-15     2.46215E-15
            1007             271     2.75284E-15     2.46215E-15
             886             271     2.75284E-15     2.46215E-15
             889             271     2.75284E-15     2.46215E-15
             889             272     1.10586E-15     1.25879E-15
            1010             272     1.10586E-15     1.25879E-15
            1007             272     1.10586E-15     1.25879E-15
             892             272     1.10586E-15     1.25879E-15
            1010             273     3.60369E-15     3.95048E-15
            1013             273     3.60369E-15     3.95048E-15
             892             273     3.60369E-15     3.95048E-15
             895             273     3.60369E-15     3.95048E-15
             895             274     4.10660E-15     4.14042E-15
             894             274     4.10660E-15     4.14042E-15
             893             275     2.41312E-15     1.74066E-15
             894             275     2.41312E-15     1.74066E-15
             896             276     21.0630E-03     21.0537E-03
            1003             276     21.0630E-03     21.0537E-03
            1002             276     21.0630E-03     21.0537E-03
             897             276     21.0630E-03     21.0537E-03
            1001             277     23.3049E-03     23.2960E-03
             898             277     23.3049E-03     23.2960E-03
             897             277     23.3049E-03     23.2960E-03
            1002             277     23.3049E-03     23.2960E-03
             901             278     44.5875E-03     44.5721E-03
            2131             278     44.5875E-03     44.5721E-03
             898             278     44.5875E-03     44.5721E-03
            2134             278     44.5875E-03     44.5721E-03
             904             279     46.0485E-03     45.6933E-03
            2137             279     46.0485E-03     45.6933E-03
             901             279     46.0485E-03     45.6933E-03
            2134             279     46.0485E-03     45.6933E-03
            2137             280     49.1050E-03     48.1400E-03
            2140             280     49.1050E-03     48.1400E-03
             907             280     49.1050E-03     48.1400E-03
             904             280     49.1050E-03     48.1400E-03
            2140             281     51.6507E-03     50.5897E-03
             907             281     51.6507E-03     50.5897E-03
             910             281     51.6507E-03     50.5897E-03
            2143             281     51.6507E-03     50.5897E-03
            2143             282     53.3386E-03     53.2990E-03
            2146             282     53.3386E-03     53.2990E-03
             913             282     53.3386E-03     53.2990E-03
             910             282     53.3386E-03     53.2990E-03
             913             283     51.6223E-03     52.7569E-03
            2146             283     51.6223E-03     52.7569E-03
             916             283     51.6223E-03     52.7569E-03
            2149             283     51.6223E-03     52.7569E-03
             919             284     46.9009E-03     47.9080E-03
            2152             284     46.9009E-03     47.9080E-03
            2149             284     46.9009E-03     47.9080E-03
             916             284     46.9009E-03     47.9080E-03
             919             285     47.3518E-03     46.7274E-03
            2152             285     47.3518E-03     46.7274E-03
            2155             285     47.3518E-03     46.7274E-03
             922             285     47.3518E-03     46.7274E-03
            2155             286     51.0063E-03     48.4326E-03
             922             286     51.0063E-03     48.4326E-03
             925             286     51.0063E-03     48.4326E-03
            2158             286     51.0063E-03     48.4326E-03
             925             287     52.3213E-03     49.5561E-03
             928             287     52.3213E-03     49.5561E-03
            2158             287     52.3213E-03     49.5561E-03
            2161             287     52.3213E-03     49.5561E-03
             928             288     53.8689E-03     52.7378E-03
             931             288     53.8689E-03     52.7378E-03
            2161             288     53.8689E-03     52.7378E-03
            2164             288     53.8689E-03     52.7378E-03
            2164             289     54.9460E-03     56.2576E-03
             934             289     54.9460E-03     56.2576E-03
            2167             289     54.9460E-03     56.2576E-03
             931             289     54.9460E-03     56.2576E-03
            2167             290     52.9596E-03     56.0095E-03
            2170             290     52.9596E-03     56.0095E-03
             934             290     52.9596E-03     56.0095E-03
             937             290     52.9596E-03     56.0095E-03
            2170             291     46.7634E-03     49.0114E-03
            2173             291     46.7634E-03     49.0114E-03
             937             291     46.7634E-03     49.0114E-03
             940             291     46.7634E-03     49.0114E-03
            2176             292     49.4740E-03     48.6299E-03
            2173             292     49.4740E-03     48.6299E-03
             943             292     49.4740E-03     48.6299E-03
             940             292     49.4740E-03     48.6299E-03
            2179             293     54.8991E-03     51.2057E-03
            2176             293     54.8991E-03     51.2057E-03
             943             293     54.8991E-03     51.2057E-03
             946             293     54.8991E-03     51.2057E-03
             949             294     54.8858E-03     51.5248E-03
            2182             294     54.8858E-03     51.5248E-03
             946             294     54.8858E-03     51.5248E-03
            2179             294     54.8858E-03     51.5248E-03
             952             295     56.7933E-03     57.4849E-03
            2182             295     56.7933E-03     57.4849E-03
             949             295     56.7933E-03     57.4849E-03
            2185             295     56.7933E-03     57.4849E-03
             955             296     54.7850E-03     58.8335E-03
            2185             296     54.7850E-03     58.8335E-03
             952             296     54.7850E-03     58.8335E-03
            2188             296     54.7850E-03     58.8335E-03
            2188             297     47.5040E-03     50.4301E-03
            2191             297     47.5040E-03     50.4301E-03
             955             297     47.5040E-03     50.4301E-03
             958             297     47.5040E-03     50.4301E-03
             958             298     51.2075E-03     49.7501E-03
            2194             298     51.2075E-03     49.7501E-03
            2191             298     51.2075E-03     49.7501E-03
             961             298     51.2075E-03     49.7501E-03
             964             299     57.9243E-03     52.4511E-03
            2197             299     57.9243E-03     52.4511E-03
             961             299     57.9243E-03     52.4511E-03
            2194             299     57.9243E-03     52.4511E-03
             964             300     56.9520E-03     51.8065E-03
             967             300     56.9520E-03     51.8065E-03
            2200             300     56.9520E-03     51.8065E-03
            2197             300     56.9520E-03     51.8065E-03
             970             301     58.3400E-03     56.6948E-03
            2203             301     58.3400E-03     56.6948E-03
            2200             301     58.3400E-03     56.6948E-03
             967             301     58.3400E-03     56.6948E-03
             970             302     60.4329E-03     63.4383E-03
             973             302     60.4329E-03     63.4383E-03
            2203             302     60.4329E-03     63.4383E-03
            2206             302     60.4329E-03     63.4383E-03
            2209             303     58.1877E-03     64.3001E-03
             973             303     58.1877E-03     64.3001E-03
             976             303     58.1877E-03     64.3001E-03
            2206             303     58.1877E-03     64.3001E-03
            2212             304     49.7909E-03     53.5982E-03
             976             304     49.7909E-03     53.5982E-03
            2209             304     49.7909E-03     53.5982E-03
             979             304     49.7909E-03     53.5982E-03
             979             305     55.5022E-03     53.5657E-03
            2215             305     55.5022E-03     53.5657E-03
            2212             305     55.5022E-03     53.5657E-03
             982             305     55.5022E-03     53.5657E-03
             985             306     63.1509E-03     56.9725E-03
            2215             306     63.1509E-03     56.9725E-03
            2218             306     63.1509E-03     56.9725E-03
             982             306     63.1509E-03     56.9725E-03
             985             307     61.1808E-03     56.4393E-03
             988             307     61.1808E-03     56.4393E-03
            2218             307     61.1808E-03     56.4393E-03
            2221             307     61.1808E-03     56.4393E-03
            2221             308     63.5330E-03     65.5837E-03
             988             308     63.5330E-03     65.5837E-03
             991             308     63.5330E-03     65.5837E-03
            2224             308     63.5330E-03     65.5837E-03
             994             309     61.0136E-03     67.6446E-03
             991             309     61.0136E-03     67.6446E-03
            2227             309     61.0136E-03     67.6446E-03
            2224             309     61.0136E-03     67.6446E-03
             997             310     51.9343E-03     55.8071E-03
            2230             310     51.9343E-03     55.8071E-03
            2227             310     51.9343E-03     55.8071E-03
             994             310     51.9343E-03     55.8071E-03
             997             311     43.9552E-03     44.2859E-03
            2230             311     43.9552E-03     44.2859E-03
            1000             311     43.9552E-03     44.2859E-03
            2233             311     43.9552E-03     44.2859E-03
            2328             312     83.8864E-03     79.1897E-03
            2327             312     83.8864E-03     79.1897E-03
            1000             312     83.8864E-03     79.1897E-03
             999             312     83.8864E-03     79.1897E-03
             999             313     141.751E-03     134.369E-03
             998             313     141.751E-03     134.369E-03
            2326             313     141.751E-03     134.369E-03
            2327             313     141.751E-03     134.369E-03
            1014             314     4.31646E-15     4.91381E-15
            1015             314     4.31646E-15     4.91381E-15
            1013             315     5.31642E-15     5.10365E-15
            1014             315     5.31642E-15     5.10365E-15
            1016             316     83.8864E-03     79.1897E-03
            2233             316     83.8864E-03     79.1897E-03
            1017             316     83.8864E-03     79.1897E-03
            2234             316     83.8864E-03     79.1897E-03
            2235             317     141.751E-03     134.369E-03
            2234             317     141.751E-03     134.369E-03
            1018             317     141.751E-03     134.369E-03
            1017             317     141.751E-03     134.369E-03
            1021             318     182.720E-03     178.867E-03
            1018             318     182.720E-03     178.867E-03
            1024             319     197.126E-03     200.603E-03
            1021             319     197.126E-03     200.603E-03
            1024             320     209.028E-03     211.250E-03
            1027             320     209.028E-03     211.250E-03
            1030             321     221.680E-03     216.509E-03
            1027             321     221.680E-03     216.509E-03
            1030             322     170.070E-03     163.793E-03
            1029             322     170.070E-03     163.793E-03
            2903             322     170.070E-03     163.793E-03
            2902             322     170.070E-03     163.793E-03
            1028             323     93.5624E-03     91.2706E-03
            1029             323     93.5624E-03     91.2706E-03
            2902             323     93.5624E-03     91.2706E-03
            2901             323     93.5624E-03     91.2706E-03
            1028             324     54.2361E-03     57.5788E-03
            2337             324     54.2361E-03     57.5788E-03
            1025             324     54.2361E-03     57.5788E-03
            2340             324     54.2361E-03     57.5788E-03
            2334             325     64.1115E-03     69.9449E-03
            1022             325     64.1115E-03     69.9449E-03
            2337             325     64.1115E-03     69.9449E-03
            1025             325     64.1115E-03     69.9449E-03
            2334             326     67.2112E-03     66.5455E-03
            1022             326     67.2112E-03     66.5455E-03
            2331             326     67.2112E-03     66.5455E-03
            1019             326     67.2112E-03     66.5455E-03
            1019             327     69.2352E-03     63.4594E-03
            2331             327     69.2352E-03     63.4594E-03
            2328             327     69.2352E-03     63.4594E-03
            1016             327     69.2352E-03     63.4594E-03
            2335             396     221.680E-03     216.509E-03
            2338             396     221.680E-03     216.509E-03
            2332             397     209.028E-03     211.250E-03
            2335             397     209.028E-03     211.250E-03
            2329             398     197.126E-03     200.603E-03
            2332             398     197.126E-03     200.603E-03
            2329             399     182.720E-03     178.867E-03
            2326             399     182.720E-03     178.867E-03
            2903             400     222.299E-03     216.936E-03
            2906             400     222.299E-03     216.936E-03
            2906             401     226.689E-03     222.900E-03
            2909             401     226.689E-03     222.900E-03
            2909             402     191.510E-03     196.605E-03
            2912             402     191.510E-03     196.605E-03
            2912             403     155.611E-03     154.934E-03
            2915             403     155.611E-03     154.934E-03
            2239             428     222.299E-03     216.936E-03
            2236             428     222.299E-03     216.936E-03
            2239             429     226.689E-03     222.900E-03
            2242             429     226.689E-03     222.900E-03
            2245             430     191.510E-03     196.605E-03
            2242             430     191.510E-03     196.605E-03
            2245             431     155.611E-03     154.934E-03
            2248             431     155.611E-03     154.934E-03
            2339             440     170.070E-03     163.793E-03
            2338             440     170.070E-03     163.793E-03
            2237             440     170.070E-03     163.793E-03
            2236             440     170.070E-03     163.793E-03
            2340             441     93.5624E-03     91.2706E-03
            2237             441     93.5624E-03     91.2706E-03
            2339             441     93.5624E-03     91.2706E-03
            2238             441     93.5624E-03     91.2706E-03
            2901             442     93.9373E-03     94.4788E-03
            2241             442     93.9373E-03     94.4788E-03
            2904             442     93.9373E-03     94.4788E-03
            2238             442     93.9373E-03     94.4788E-03
            2904             443     123.309E-03     125.212E-03
            2907             443     123.309E-03     125.212E-03
            2244             443     123.309E-03     125.212E-03
            2241             443     123.309E-03     125.212E-03
            2244             444     136.815E-03     137.599E-03
            2907             444     136.815E-03     137.599E-03
            2910             444     136.815E-03     137.599E-03
            2247             444     136.815E-03     137.599E-03
            2250             445     143.016E-03     141.236E-03
            2247             445     143.016E-03     141.236E-03
            2913             445     143.016E-03     141.236E-03
            2910             445     143.016E-03     141.236E-03
            2943             446     135.849E-03     133.223E-03
            2942             446     135.849E-03     133.223E-03
            2249             446     135.849E-03     133.223E-03
            2250             446     135.849E-03     133.223E-03
            2942             447     151.780E-03     147.720E-03
            2941             447     151.780E-03     147.720E-03
            2249             447     151.780E-03     147.720E-03
            2248             447     151.780E-03     147.720E-03
            2944             452     155.222E-03     155.048E-03
            2941             452     155.222E-03     155.048E-03
            2947             453     156.255E-03     153.168E-03
            2944             453     156.255E-03     153.168E-03
            2947             454     166.259E-03     163.090E-03
            2950             454     166.259E-03     163.090E-03
            2950             455     135.051E-03     134.598E-03
            2953             455     135.051E-03     134.598E-03
            2956             456     113.737E-03     113.273E-03
            2953             456     113.737E-03     113.273E-03
            2959             457     97.7717E-03     98.2051E-03
            2956             457     97.7717E-03     98.2051E-03
            2962             458     86.9125E-03     89.4340E-03
            2959             458     86.9125E-03     89.4340E-03
            2962             459     88.4008E-03     90.6591E-03
            2965             459     88.4008E-03     90.6591E-03
            2968             460     77.2793E-03     77.4768E-03
            2965             460     77.2793E-03     77.4768E-03
            2914             474     135.849E-03     133.223E-03
            2342             474     135.849E-03     133.223E-03
            2341             474     135.849E-03     133.223E-03
            2913             474     135.849E-03     133.223E-03
            2915             475     151.780E-03     147.720E-03
            2914             475     151.780E-03     147.720E-03
            2342             475     151.780E-03     147.720E-03
            2343             475     151.780E-03     147.720E-03
            2346             476     155.222E-03     155.048E-03
            2343             476     155.222E-03     155.048E-03
            2346             477     156.255E-03     153.168E-03
            2349             477     156.255E-03     153.168E-03
            2352             478     166.259E-03     163.090E-03
            2349             478     166.259E-03     163.090E-03
            2355             479     135.051E-03     134.598E-03
            2352             479     135.051E-03     134.598E-03
            2355             480     113.737E-03     113.273E-03
            2358             480     113.737E-03     113.273E-03
            2361             481     97.7717E-03     98.2051E-03
            2358             481     97.7717E-03     98.2051E-03
            2364             482     86.9125E-03     89.4340E-03
            2361             482     86.9125E-03     89.4340E-03
            2364             483     88.4008E-03     90.6591E-03
            2367             483     88.4008E-03     90.6591E-03
            2370             484     77.2793E-03     77.4768E-03
            2367             484     77.2793E-03     77.4768E-03
            2887             485     31.4104E-03     31.1883E-03
            2370             485     31.4104E-03     31.1883E-03
            2369             485     31.4104E-03     31.1883E-03
            2888             485     31.4104E-03     31.1883E-03
            2368             486     31.3272E-03     31.1045E-03
            2886             486     31.3272E-03     31.1045E-03
            2369             486     31.3272E-03     31.1045E-03
            2887             486     31.3272E-03     31.1045E-03
            2365             487     93.9896E-03     92.8907E-03
            2970             487     93.9896E-03     92.8907E-03
            2368             487     93.9896E-03     92.8907E-03
            2967             487     93.9896E-03     92.8907E-03
            2964             488     129.481E-03     126.913E-03
            2967             488     129.481E-03     126.913E-03
            2362             488     129.481E-03     126.913E-03
            2365             488     129.481E-03     126.913E-03
            2362             489     136.907E-03     133.957E-03
            2964             489     136.907E-03     133.957E-03
            2359             489     136.907E-03     133.957E-03
            2961             489     136.907E-03     133.957E-03
            2359             490     141.341E-03     139.867E-03
            2961             490     141.341E-03     139.867E-03
            2356             490     141.341E-03     139.867E-03
            2958             490     141.341E-03     139.867E-03
            2353             491     142.508E-03     143.670E-03
            2955             491     142.508E-03     143.670E-03
            2958             491     142.508E-03     143.670E-03
            2356             491     142.508E-03     143.670E-03
            2952             492     137.625E-03     140.932E-03
            2350             492     137.625E-03     140.932E-03
            2353             492     137.625E-03     140.932E-03
            2955             492     137.625E-03     140.932E-03
            2952             493     124.942E-03     127.582E-03
            2949             493     124.942E-03     127.582E-03
            2347             493     124.942E-03     127.582E-03
            2350             493     124.942E-03     127.582E-03
            2949             494     125.201E-03     125.917E-03
            2946             494     125.201E-03     125.917E-03
            2344             494     125.201E-03     125.917E-03
            2347             494     125.201E-03     125.917E-03
            2943             495     121.521E-03     121.505E-03
            2341             495     121.521E-03     121.505E-03
            2946             495     121.521E-03     121.505E-03
            2344             495     121.521E-03     121.505E-03
            2888             569     1.52280E-15     2.57726E-15
            2891             569     1.52280E-15     2.57726E-15
            2894             570     1.91352E-15     2.58111E-15
            2891             570     1.91352E-15     2.58111E-15
            2897             571     1.38309E-15     1.98258E-15
            2894             571     1.38309E-15     1.98258E-15
            2897             572     2.65926E-15     2.94549E-15
            2900             572     2.65926E-15     2.94549E-15
            2968             593     31.4104E-03     31.1883E-03
            2821             593     31.4104E-03     31.1883E-03
            2822             593     31.4104E-03     31.1883E-03
            2969             593     31.4104E-03     31.1883E-03
            2823             594     31.3272E-03     31.1045E-03
            2969             594     31.3272E-03     31.1045E-03
            2970             594     31.3272E-03     31.1045E-03
            2822             594     31.3272E-03     31.1045E-03
            2889             595     1.18849E-15     1.64339E-15
            2823             595     1.18849E-15     1.64339E-15
            2826             595     1.18849E-15     1.64339E-15
            2886             595     1.18849E-15     1.64339E-15
            2826             596     1.01405E-15     1.64485E-15
            2889             596     1.01405E-15     1.64485E-15
            2892             596     1.01405E-15     1.64485E-15
            2829             596     1.01405E-15     1.64485E-15
            2895             597     1.43096E-15     1.60515E-15
            2892             597     1.43096E-15     1.60515E-15
            2832             597     1.43096E-15     1.60515E-15
            2829             597     1.43096E-15     1.60515E-15
            2835             598     1.68082E-15     1.37184E-15
            2895             598     1.68082E-15     1.37184E-15
            2898             598     1.68082E-15     1.37184E-15
            2832             598     1.68082E-15     1.37184E-15
            2834             599     1.59521E-15     1.38248E-15
            2835             599     1.59521E-15     1.38248E-15
            2834             600     1.38097E-15     1.80959E-15
            2833             600     1.38097E-15     1.80959E-15
            2830             601     2.86229E-15     2.01860E-15
            2833             601     2.86229E-15     2.01860E-15
            2827             602     3.36399E-15     1.85040E-15
            2830             602     3.36399E-15     1.85040E-15
            2827             603     1.68487E-15     938.507E-18
            2824             603     1.68487E-15     938.507E-18
            2824             604     1.48421E-15     1.46541E-15
            2821             604     1.48421E-15     1.46541E-15
            2899             609     2.83595E-15     2.46314E-15
            2900             609     2.83595E-15     2.46314E-15
            2898             610     1.40009E-15     1.44646E-15
            2899             610     1.40009E-15     1.44646E-15
             885            1399     2.69962E-15     2.36112E-15
             884            1399     2.69962E-15     2.36112E-15
             881            1399     2.69962E-15     2.36112E-15
             882            1399     2.69962E-15     2.36112E-15
             882            1400     1.96895E-15     2.23022E-15
             885            1400     1.96895E-15     2.23022E-15
             883            1400     1.96895E-15     2.23022E-15
             886            1400     1.96895E-15     2.23022E-15
             885            1401     2.16524E-15     1.98878E-15
             884            1401     2.16524E-15     1.98878E-15
             887            1401     2.16524E-15     1.98878E-15
             888            1401     2.16524E-15     1.98878E-15
             885            1402     1.77663E-15     1.75254E-15
             889            1402     1.77663E-15     1.75254E-15
             886            1402     1.77663E-15     1.75254E-15
             888            1402     1.77663E-15     1.75254E-15
             887            1403     3.02441E-15     3.45543E-15
             890            1403     3.02441E-15     3.45543E-15
             888            1403     3.02441E-15     3.45543E-15
             891            1403     3.02441E-15     3.45543E-15
             889            1404     1.32417E-15     1.46971E-15
             888            1404     1.32417E-15     1.46971E-15
             892            1404     1.32417E-15     1.46971E-15
             891            1404     1.32417E-15     1.46971E-15
             890            1405     2.78262E-15     2.79101E-15
             893            1405     2.78262E-15     2.79101E-15
             891            1405     2.78262E-15     2.79101E-15
             894            1405     2.78262E-15     2.79101E-15
             891            1406     2.89917E-15     3.10594E-15
             895            1406     2.89917E-15     3.10594E-15
             894            1406     2.89917E-15     3.10594E-15
             892            1406     2.89917E-15     3.10594E-15
             900            1407     42.7266E-03     42.7153E-03
             897            1407     42.7266E-03     42.7153E-03
             899            1407     42.7266E-03     42.7153E-03
             896            1407     42.7266E-03     42.7153E-03
             897            1408     46.1448E-03     46.1298E-03
             900            1408     46.1448E-03     46.1298E-03
             901            1408     46.1448E-03     46.1298E-03
             898            1408     46.1448E-03     46.1298E-03
             903            1409     41.3393E-03     41.1005E-03
             900            1409     41.3393E-03     41.1005E-03
             902            1409     41.3393E-03     41.1005E-03
             899            1409     41.3393E-03     41.1005E-03
             900            1410     46.2453E-03     45.8390E-03
             903            1410     46.2453E-03     45.8390E-03
             901            1410     46.2453E-03     45.8390E-03
             904            1410     46.2453E-03     45.8390E-03
             902            1411     39.8895E-03     39.8162E-03
             905            1411     39.8895E-03     39.8162E-03
             903            1411     39.8895E-03     39.8162E-03
             906            1411     39.8895E-03     39.8162E-03
             903            1412     48.0100E-03     47.0332E-03
             906            1412     48.0100E-03     47.0332E-03
             907            1412     48.0100E-03     47.0332E-03
             904            1412     48.0100E-03     47.0332E-03
             905            1413     41.4174E-03     41.7576E-03
             909            1413     41.4174E-03     41.7576E-03
             908            1413     41.4174E-03     41.7576E-03
             906            1413     41.4174E-03     41.7576E-03
             910            1414     49.6584E-03     48.9992E-03
             906            1414     49.6584E-03     48.9992E-03
             907            1414     49.6584E-03     48.9992E-03
             909            1414     49.6584E-03     48.9992E-03
             911            1415     44.4328E-03     44.6034E-03
             912            1415     44.4328E-03     44.6034E-03
             909            1415     44.4328E-03     44.6034E-03
             908            1415     44.4328E-03     44.6034E-03
             912            1416     50.7267E-03     50.8308E-03
             910            1416     50.7267E-03     50.8308E-03
             913            1416     50.7267E-03     50.8308E-03
             909            1416     50.7267E-03     50.8308E-03
             915            1417     50.1992E-03     50.4291E-03
             914            1417     50.1992E-03     50.4291E-03
             911            1417     50.1992E-03     50.4291E-03
             912            1417     50.1992E-03     50.4291E-03
             912            1418     51.5705E-03     52.3804E-03
             915            1418     51.5705E-03     52.3804E-03
             916            1418     51.5705E-03     52.3804E-03
             913            1418     51.5705E-03     52.3804E-03
             915            1419     56.1544E-03     55.8585E-03
             917            1419     56.1544E-03     55.8585E-03
             918            1419     56.1544E-03     55.8585E-03
             914            1419     56.1544E-03     55.8585E-03
             916            1420     49.3293E-03     50.1408E-03
             915            1420     49.3293E-03     50.1408E-03
             918            1420     49.3293E-03     50.1408E-03
             919            1420     49.3293E-03     50.1408E-03
             917            1421     52.3560E-03     49.9746E-03
             921            1421     52.3560E-03     49.9746E-03
             918            1421     52.3560E-03     49.9746E-03
             920            1421     52.3560E-03     49.9746E-03
             921            1422     49.0521E-03     47.8814E-03
             922            1422     49.0521E-03     47.8814E-03
             918            1422     49.0521E-03     47.8814E-03
             919            1422     49.0521E-03     47.8814E-03
             921            1423     49.3745E-03     48.0111E-03
             923            1423     49.3745E-03     48.0111E-03
             924            1423     49.3745E-03     48.0111E-03
             920            1423     49.3745E-03     48.0111E-03
             925            1424     51.8433E-03     49.2776E-03
             924            1424     51.8433E-03     49.2776E-03
             922            1424     51.8433E-03     49.2776E-03
             921            1424     51.8433E-03     49.2776E-03
             927            1425     55.2607E-03     55.9690E-03
             924            1425     55.2607E-03     55.9690E-03
             926            1425     55.2607E-03     55.9690E-03
             923            1425     55.2607E-03     55.9690E-03
             928            1426     53.4309E-03     51.9542E-03
             925            1426     53.4309E-03     51.9542E-03
             924            1426     53.4309E-03     51.9542E-03
             927            1426     53.4309E-03     51.9542E-03
             929            1427     61.0637E-03     61.3805E-03
             930            1427     61.0637E-03     61.3805E-03
             926            1427     61.0637E-03     61.3805E-03
             927            1427     61.0637E-03     61.3805E-03
             931            1428     55.4150E-03     55.2607E-03
             928            1428     55.4150E-03     55.2607E-03
             927            1428     55.4150E-03     55.2607E-03
             930            1428     55.4150E-03     55.2607E-03
             929            1429     67.1313E-03     67.1092E-03
             932            1429     67.1313E-03     67.1092E-03
             933            1429     67.1313E-03     67.1092E-03
             930            1429     67.1313E-03     67.1092E-03
             931            1430     57.7221E-03     58.6386E-03
             930            1430     57.7221E-03     58.6386E-03
             934            1430     57.7221E-03     58.6386E-03
             933            1430     57.7221E-03     58.6386E-03
             933            1431     74.7501E-03     75.3836E-03
             935            1431     74.7501E-03     75.3836E-03
             936            1431     74.7501E-03     75.3836E-03
             932            1431     74.7501E-03     75.3836E-03
             934            1432     59.3957E-03     61.6803E-03
             936            1432     59.3957E-03     61.6803E-03
             937            1432     59.3957E-03     61.6803E-03
             933            1432     59.3957E-03     61.6803E-03
             935            1433     80.9353E-03     79.9820E-03
             939            1433     80.9353E-03     79.9820E-03
             936            1433     80.9353E-03     79.9820E-03
             938            1433     80.9353E-03     79.9820E-03
             937            1434     56.1877E-03     57.6147E-03
             936            1434     56.1877E-03     57.6147E-03
             939            1434     56.1877E-03     57.6147E-03
             940            1434     56.1877E-03     57.6147E-03
             939            1435     75.3547E-03     70.1426E-03
             942            1435     75.3547E-03     70.1426E-03
             938            1435     75.3547E-03     70.1426E-03
             941            1435     75.3547E-03     70.1426E-03
             939            1436     56.5745E-03     54.1702E-03
             942            1436     56.5745E-03     54.1702E-03
             943            1436     56.5745E-03     54.1702E-03
             940            1436     56.5745E-03     54.1702E-03
             945            1437     72.8983E-03     70.3036E-03
             941            1437     72.8983E-03     70.3036E-03
             942            1437     72.8983E-03     70.3036E-03
             944            1437     72.8983E-03     70.3036E-03
             942            1438     61.0535E-03     57.4036E-03
             946            1438     61.0535E-03     57.4036E-03
             943            1438     61.0535E-03     57.4036E-03
             945            1438     61.0535E-03     57.4036E-03
             947            1439     81.0063E-03     82.5900E-03
             945            1439     81.0063E-03     82.5900E-03
             944            1439     81.0063E-03     82.5900E-03
             948            1439     81.0063E-03     82.5900E-03
             949            1440     62.6466E-03     61.5652E-03
             948            1440     62.6466E-03     61.5652E-03
             946            1440     62.6466E-03     61.5652E-03
             945            1440     62.6466E-03     61.5652E-03
             947            1441     87.6788E-03     88.6088E-03
             948            1441     87.6788E-03     88.6088E-03
             950            1441     87.6788E-03     88.6088E-03
             951            1441     87.6788E-03     88.6088E-03
             949            1442     65.3002E-03     66.7681E-03
             948            1442     65.3002E-03     66.7681E-03
             951            1442     65.3002E-03     66.7681E-03
             952            1442     65.3002E-03     66.7681E-03
             953            1443     95.9436E-03     97.5307E-03
             950            1443     95.9436E-03     97.5307E-03
             951            1443     95.9436E-03     97.5307E-03
             954            1443     95.9436E-03     97.5307E-03
             952            1444     67.2094E-03     70.6132E-03
             954            1444     67.2094E-03     70.6132E-03
             951            1444     67.2094E-03     70.6132E-03
             955            1444     67.2094E-03     70.6132E-03
             957            1445     102.045E-03     100.550E-03
             954            1445     102.045E-03     100.550E-03
             953            1445     102.045E-03     100.550E-03
             956            1445     102.045E-03     100.550E-03
             954            1446     63.2337E-03     64.9400E-03
             955            1446     63.2337E-03     64.9400E-03
             958            1446     63.2337E-03     64.9400E-03
             957            1446     63.2337E-03     64.9400E-03
             959            1447     96.3456E-03     88.1573E-03
             957            1447     96.3456E-03     88.1573E-03
             956            1447     96.3456E-03     88.1573E-03
             960            1447     96.3456E-03     88.1573E-03
             960            1448     64.0195E-03     60.0442E-03
             957            1448     64.0195E-03     60.0442E-03
             961            1448     64.0195E-03     60.0442E-03
             958            1448     64.0195E-03     60.0442E-03
             963            1449     94.1971E-03     90.1539E-03
             960            1449     94.1971E-03     90.1539E-03
             962            1449     94.1971E-03     90.1539E-03
             959            1449     94.1971E-03     90.1539E-03
             964            1450     69.4189E-03     64.1334E-03
             960            1450     69.4189E-03     64.1334E-03
             963            1450     69.4189E-03     64.1334E-03
             961            1450     69.4189E-03     64.1334E-03
             963            1451     102.930E-03     104.678E-03
             965            1451     102.930E-03     104.678E-03
             962            1451     102.930E-03     104.678E-03
             966            1451     102.930E-03     104.678E-03
             963            1452     70.9485E-03     69.0949E-03
             967            1452     70.9485E-03     69.0949E-03
             964            1452     70.9485E-03     69.0949E-03
             966            1452     70.9485E-03     69.0949E-03
             966            1453     110.328E-03     110.963E-03
             969            1453     110.328E-03     110.963E-03
             965            1453     110.328E-03     110.963E-03
             968            1453     110.328E-03     110.963E-03
             967            1454     73.7644E-03     73.9910E-03
             966            1454     73.7644E-03     73.9910E-03
             969            1454     73.7644E-03     73.9910E-03
             970            1454     73.7644E-03     73.9910E-03
             972            1455     117.411E-03     117.623E-03
             969            1455     117.411E-03     117.623E-03
             968            1455     117.411E-03     117.623E-03
             971            1455     117.411E-03     117.623E-03
             973            1456     77.2400E-03     79.5517E-03
             969            1456     77.2400E-03     79.5517E-03
             972            1456     77.2400E-03     79.5517E-03
             970            1456     77.2400E-03     79.5517E-03
             971            1457     125.938E-03     127.726E-03
             974            1457     125.938E-03     127.726E-03
             975            1457     125.938E-03     127.726E-03
             972            1457     125.938E-03     127.726E-03
             973            1458     79.3875E-03     84.2133E-03
             972            1458     79.3875E-03     84.2133E-03
             976            1458     79.3875E-03     84.2133E-03
             975            1458     79.3875E-03     84.2133E-03
             974            1459     131.384E-03     128.777E-03
             978            1459     131.384E-03     128.777E-03
             975            1459     131.384E-03     128.777E-03
             977            1459     131.384E-03     128.777E-03
             979            1460     74.3984E-03     76.0921E-03
             978            1460     74.3984E-03     76.0921E-03
             975            1460     74.3984E-03     76.0921E-03
             976            1460     74.3984E-03     76.0921E-03
             977            1461     124.205E-03     113.276E-03
             980            1461     124.205E-03     113.276E-03
             978            1461     124.205E-03     113.276E-03
             981            1461     124.205E-03     113.276E-03
             981            1462     75.3325E-03     69.8586E-03
             982            1462     75.3325E-03     69.8586E-03
             979            1462     75.3325E-03     69.8586E-03
             978            1462     75.3325E-03     69.8586E-03
             983            1463     122.829E-03     118.148E-03
             981            1463     122.829E-03     118.148E-03
             984            1463     122.829E-03     118.148E-03
             980            1463     122.829E-03     118.148E-03
             984            1464     81.9558E-03     76.1129E-03
             981            1464     81.9558E-03     76.1129E-03
             982            1464     81.9558E-03     76.1129E-03
             985            1464     81.9558E-03     76.1129E-03
             983            1465     132.726E-03     135.736E-03
             984            1465     132.726E-03     135.736E-03
             987            1465     132.726E-03     135.736E-03
             986            1465     132.726E-03     135.736E-03
             984            1466     83.6196E-03     82.9021E-03
             985            1466     83.6196E-03     82.9021E-03
             987            1466     83.6196E-03     82.9021E-03
             988            1466     83.6196E-03     82.9021E-03
             990            1467     139.867E-03     141.702E-03
             987            1467     139.867E-03     141.702E-03
             986            1467     139.867E-03     141.702E-03
             989            1467     139.867E-03     141.702E-03
             990            1468     86.8315E-03     90.0768E-03
             987            1468     86.8315E-03     90.0768E-03
             988            1468     86.8315E-03     90.0768E-03
             991            1468     86.8315E-03     90.0768E-03
             993            1469     148.751E-03     151.804E-03
             990            1469     148.751E-03     151.804E-03
             992            1469     148.751E-03     151.804E-03
             989            1469     148.751E-03     151.804E-03
             990            1470     88.8974E-03     94.7095E-03
             993            1470     88.8974E-03     94.7095E-03
             991            1470     88.8974E-03     94.7095E-03
             994            1470     88.8974E-03     94.7095E-03
             996            1471     153.873E-03     150.777E-03
             995            1471     153.873E-03     150.777E-03
             993            1471     153.873E-03     150.777E-03
             992            1471     153.873E-03     150.777E-03
             997            1472     83.2177E-03     84.8529E-03
             993            1472     83.2177E-03     84.8529E-03
             994            1472     83.2177E-03     84.8529E-03
             996            1472     83.2177E-03     84.8529E-03
             996            1473     145.855E-03     140.370E-03
             995            1473     145.855E-03     140.370E-03
             998            1473     145.855E-03     140.370E-03
             999            1473     145.855E-03     140.370E-03
             997            1474     75.1780E-03     73.4224E-03
             999            1474     75.1780E-03     73.4224E-03
            1000            1474     75.1780E-03     73.4224E-03
             996            1474     75.1780E-03     73.4224E-03
            1001            1475     3.85201E-15     3.63265E-15
            1005            1475     3.85201E-15     3.63265E-15
            1002            1475     3.85201E-15     3.63265E-15
            1004            1475     3.85201E-15     3.63265E-15
            1006            1476     3.47467E-15     3.76586E-15
            1002            1476     3.47467E-15     3.76586E-15
            1005            1476     3.47467E-15     3.76586E-15
            1003            1476     3.47467E-15     3.76586E-15
            1005            1477     4.08632E-15     3.47261E-15
            1008            1477     4.08632E-15     3.47261E-15
            1004            1477     4.08632E-15     3.47261E-15
            1007            1477     4.08632E-15     3.47261E-15
            1005            1478     3.99025E-15     4.25772E-15
            1009            1478     3.99025E-15     4.25772E-15
            1008            1478     3.99025E-15     4.25772E-15
            1006            1478     3.99025E-15     4.25772E-15
            1008            1479     3.20944E-15     3.18734E-15
            1011            1479     3.20944E-15     3.18734E-15
            1010            1479     3.20944E-15     3.18734E-15
            1007            1479     3.20944E-15     3.18734E-15
            1012            1480     4.31530E-15     3.99065E-15
            1008            1480     4.31530E-15     3.99065E-15
            1011            1480     4.31530E-15     3.99065E-15
            1009            1480     4.31530E-15     3.99065E-15
            1011            1481     3.95687E-15     4.24552E-15
            1014            1481     3.95687E-15     4.24552E-15
            1010            1481     3.95687E-15     4.24552E-15
            1013            1481     3.95687E-15     4.24552E-15
            1011            1482     3.93022E-15     4.20010E-15
            1014            1482     3.93022E-15     4.20010E-15
            1015            1482     3.93022E-15     4.20010E-15
            1012            1482     3.93022E-15     4.20010E-15
            1016            1483     95.4127E-03     90.1608E-03
            1017            1483     95.4127E-03     90.1608E-03
            1020            1483     95.4127E-03     90.1608E-03
            1019            1483     95.4127E-03     90.1608E-03
            1020            1484     152.155E-03     147.865E-03
            1017            1484     152.155E-03     147.865E-03
            1021            1484     152.155E-03     147.865E-03
            1018            1484     152.155E-03     147.865E-03
            1019            1485     97.5237E-03     100.464E-03
            1022            1485     97.5237E-03     100.464E-03
            1023            1485     97.5237E-03     100.464E-03
            1020            1485     97.5237E-03     100.464E-03
            1021            1486     162.481E-03     167.493E-03
            1020            1486     162.481E-03     167.493E-03
            1023            1486     162.481E-03     167.493E-03
            1024            1486     162.481E-03     167.493E-03
            1025            1487     98.7026E-03     105.931E-03
            1022            1487     98.7026E-03     105.931E-03
            1026            1487     98.7026E-03     105.931E-03
            1023            1487     98.7026E-03     105.931E-03
            1023            1488     171.161E-03     176.583E-03
            1024            1488     171.161E-03     176.583E-03
            1026            1488     171.161E-03     176.583E-03
            1027            1488     171.161E-03     176.583E-03
            1029            1489     91.9084E-03     93.4652E-03
            1028            1489     91.9084E-03     93.4652E-03
            1026            1489     91.9084E-03     93.4652E-03
            1025            1489     91.9084E-03     93.4652E-03
            1029            1490     175.631E-03     172.930E-03
            1030            1490     175.631E-03     172.930E-03
            1026            1490     175.631E-03     172.930E-03
            1027            1490     175.631E-03     172.930E-03
            2135            2411     46.1448E-03     46.1298E-03
            2134            2411     46.1448E-03     46.1298E-03
            2131            2411     46.1448E-03     46.1298E-03
            2132            2411     46.1448E-03     46.1298E-03
            2132            2412     42.7266E-03     42.7153E-03
            2133            2412     42.7266E-03     42.7153E-03
            2135            2412     42.7266E-03     42.7153E-03
            2136            2412     42.7266E-03     42.7153E-03
            2134            2413     46.2453E-03     45.8390E-03
            2138            2413     46.2453E-03     45.8390E-03
            2135            2413     46.2453E-03     45.8390E-03
            2137            2413     46.2453E-03     45.8390E-03
            2138            2414     41.3393E-03     41.1005E-03
            2136            2414     41.3393E-03     41.1005E-03
            2135            2414     41.3393E-03     41.1005E-03
            2139            2414     41.3393E-03     41.1005E-03
            2141            2415     48.0100E-03     47.0332E-03
            2137            2415     48.0100E-03     47.0332E-03
            2138            2415     48.0100E-03     47.0332E-03
            2140            2415     48.0100E-03     47.0332E-03
            2141            2416     39.8895E-03     39.8162E-03
            2138            2416     39.8895E-03     39.8162E-03
            2139            2416     39.8895E-03     39.8162E-03
            2142            2416     39.8895E-03     39.8162E-03
            2144            2417     49.6584E-03     48.9992E-03
            2141            2417     49.6584E-03     48.9992E-03
            2140            2417     49.6584E-03     48.9992E-03
            2143            2417     49.6584E-03     48.9992E-03
            2144            2418     41.4174E-03     41.7576E-03
            2141            2418     41.4174E-03     41.7576E-03
            2145            2418     41.4174E-03     41.7576E-03
            2142            2418     41.4174E-03     41.7576E-03
            2143            2419     50.7267E-03     50.8308E-03
            2144            2419     50.7267E-03     50.8308E-03
            2146            2419     50.7267E-03     50.8308E-03
            2147            2419     50.7267E-03     50.8308E-03
            2148            2420     44.4328E-03     44.6034E-03
            2145            2420     44.4328E-03     44.6034E-03
            2144            2420     44.4328E-03     44.6034E-03
            2147            2420     44.4328E-03     44.6034E-03
            2150            2421     51.5705E-03     52.3804E-03
            2146            2421     51.5705E-03     52.3804E-03
            2149            2421     51.5705E-03     52.3804E-03
            2147            2421     51.5705E-03     52.3804E-03
            2151            2422     50.1992E-03     50.4291E-03
            2148            2422     50.1992E-03     50.4291E-03
            2147            2422     50.1992E-03     50.4291E-03
            2150            2422     50.1992E-03     50.4291E-03
            2149            2423     49.3293E-03     50.1408E-03
            2150            2423     49.3293E-03     50.1408E-03
            2153            2423     49.3293E-03     50.1408E-03
            2152            2423     49.3293E-03     50.1408E-03
            2154            2424     56.1544E-03     55.8585E-03
            2153            2424     56.1544E-03     55.8585E-03
            2151            2424     56.1544E-03     55.8585E-03
            2150            2424     56.1544E-03     55.8585E-03
            2152            2425     49.0521E-03     47.8814E-03
            2153            2425     49.0521E-03     47.8814E-03
            2156            2425     49.0521E-03     47.8814E-03
            2155            2425     49.0521E-03     47.8814E-03
            2153            2426     52.3560E-03     49.9746E-03
            2154            2426     52.3560E-03     49.9746E-03
            2157            2426     52.3560E-03     49.9746E-03
            2156            2426     52.3560E-03     49.9746E-03
            2159            2427     51.8433E-03     49.2776E-03
            2155            2427     51.8433E-03     49.2776E-03
            2158            2427     51.8433E-03     49.2776E-03
            2156            2427     51.8433E-03     49.2776E-03
            2160            2428     49.3745E-03     48.0111E-03
            2157            2428     49.3745E-03     48.0111E-03
            2156            2428     49.3745E-03     48.0111E-03
            2159            2428     49.3745E-03     48.0111E-03
            2161            2429     53.4309E-03     51.9542E-03
            2162            2429     53.4309E-03     51.9542E-03
            2159            2429     53.4309E-03     51.9542E-03
            2158            2429     53.4309E-03     51.9542E-03
            2162            2430     55.2607E-03     55.9690E-03
            2160            2430     55.2607E-03     55.9690E-03
            2159            2430     55.2607E-03     55.9690E-03
            2163            2430     55.2607E-03     55.9690E-03
            2162            2431     55.4150E-03     55.2607E-03
            2164            2431     55.4150E-03     55.2607E-03
            2165            2431     55.4150E-03     55.2607E-03
            2161            2431     55.4150E-03     55.2607E-03
            2162            2432     61.0637E-03     61.3805E-03
            2165            2432     61.0637E-03     61.3805E-03
            2163            2432     61.0637E-03     61.3805E-03
            2166            2432     61.0637E-03     61.3805E-03
            2168            2433     57.7221E-03     58.6386E-03
            2167            2433     57.7221E-03     58.6386E-03
            2165            2433     57.7221E-03     58.6386E-03
            2164            2433     57.7221E-03     58.6386E-03
            2168            2434     67.1313E-03     67.1092E-03
            2169            2434     67.1313E-03     67.1092E-03
            2166            2434     67.1313E-03     67.1092E-03
            2165            2434     67.1313E-03     67.1092E-03
            2170            2435     59.3957E-03     61.6803E-03
            2167            2435     59.3957E-03     61.6803E-03
            2171            2435     59.3957E-03     61.6803E-03
            2168            2435     59.3957E-03     61.6803E-03
            2171            2436     74.7501E-03     75.3836E-03
            2169            2436     74.7501E-03     75.3836E-03
            2172            2436     74.7501E-03     75.3836E-03
            2168            2436     74.7501E-03     75.3836E-03
            2174            2437     56.1877E-03     57.6147E-03
            2173            2437     56.1877E-03     57.6147E-03
            2170            2437     56.1877E-03     57.6147E-03
            2171            2437     56.1877E-03     57.6147E-03
            2171            2438     80.9353E-03     79.9820E-03
            2175            2438     80.9353E-03     79.9820E-03
            2172            2438     80.9353E-03     79.9820E-03
            2174            2438     80.9353E-03     79.9820E-03
            2173            2439     56.5745E-03     54.1702E-03
            2174            2439     56.5745E-03     54.1702E-03
            2176            2439     56.5745E-03     54.1702E-03
            2177            2439     56.5745E-03     54.1702E-03
            2174            2440     75.3547E-03     70.1426E-03
            2178            2440     75.3547E-03     70.1426E-03
            2175            2440     75.3547E-03     70.1426E-03
            2177            2440     75.3547E-03     70.1426E-03
            2177            2441     61.0535E-03     57.4036E-03
            2176            2441     61.0535E-03     57.4036E-03
            2180            2441     61.0535E-03     57.4036E-03
            2179            2441     61.0535E-03     57.4036E-03
            2181            2442     72.8983E-03     70.3036E-03
            2178            2442     72.8983E-03     70.3036E-03
            2177            2442     72.8983E-03     70.3036E-03
            2180            2442     72.8983E-03     70.3036E-03
            2183            2443     62.6466E-03     61.5652E-03
            2182            2443     62.6466E-03     61.5652E-03
            2180            2443     62.6466E-03     61.5652E-03
            2179            2443     62.6466E-03     61.5652E-03
            2181            2444     81.0063E-03     82.5900E-03
            2180            2444     81.0063E-03     82.5900E-03
            2184            2444     81.0063E-03     82.5900E-03
            2183            2444     81.0063E-03     82.5900E-03
            2183            2445     65.3002E-03     66.7681E-03
            2185            2445     65.3002E-03     66.7681E-03
            2182            2445     65.3002E-03     66.7681E-03
            2186            2445     65.3002E-03     66.7681E-03
            2183            2446     87.6788E-03     88.6088E-03
            2186            2446     87.6788E-03     88.6088E-03
            2184            2446     87.6788E-03     88.6088E-03
            2187            2446     87.6788E-03     88.6088E-03
            2185            2447     67.2094E-03     70.6132E-03
            2186            2447     67.2094E-03     70.6132E-03
            2188            2447     67.2094E-03     70.6132E-03
            2189            2447     67.2094E-03     70.6132E-03
            2189            2448     95.9436E-03     97.5307E-03
            2187            2448     95.9436E-03     97.5307E-03
            2190            2448     95.9436E-03     97.5307E-03
            2186            2448     95.9436E-03     97.5307E-03
            2192            2449     63.2337E-03     64.9400E-03
            2188            2449     63.2337E-03     64.9400E-03
            2191            2449     63.2337E-03     64.9400E-03
            2189            2449     63.2337E-03     64.9400E-03
            2189            2450     102.045E-03     100.550E-03
            2193            2450     102.045E-03     100.550E-03
            2190            2450     102.045E-03     100.550E-03
            2192            2450     102.045E-03     100.550E-03
            2191            2451     64.0195E-03     60.0442E-03
            2195            2451     64.0195E-03     60.0442E-03
            2192            2451     64.0195E-03     60.0442E-03
            2194            2451     64.0195E-03     60.0442E-03
            2193            2452     96.3456E-03     88.1573E-03
            2195            2452     96.3456E-03     88.1573E-03
            2196            2452     96.3456E-03     88.1573E-03
            2192            2452     96.3456E-03     88.1573E-03
            2194            2453     69.4189E-03     64.1334E-03
            2198            2453     69.4189E-03     64.1334E-03
            2195            2453     69.4189E-03     64.1334E-03
            2197            2453     69.4189E-03     64.1334E-03
            2198            2454     94.1971E-03     90.1539E-03
            2196            2454     94.1971E-03     90.1539E-03
            2195            2454     94.1971E-03     90.1539E-03
            2199            2454     94.1971E-03     90.1539E-03
            2197            2455     70.9485E-03     69.0949E-03
            2201            2455     70.9485E-03     69.0949E-03
            2200            2455     70.9485E-03     69.0949E-03
            2198            2455     70.9485E-03     69.0949E-03
            2199            2456     102.930E-03     104.678E-03
            2202            2456     102.930E-03     104.678E-03
            2201            2456     102.930E-03     104.678E-03
            2198            2456     102.930E-03     104.678E-03
            2201            2457     73.7644E-03     73.9910E-03
            2204            2457     73.7644E-03     73.9910E-03
            2200            2457     73.7644E-03     73.9910E-03
            2203            2457     73.7644E-03     73.9910E-03
            2204            2458     110.328E-03     110.963E-03
            2202            2458     110.328E-03     110.963E-03
            2205            2458     110.328E-03     110.963E-03
            2201            2458     110.328E-03     110.963E-03
            2206            2459     77.2400E-03     79.5517E-03
            2204            2459     77.2400E-03     79.5517E-03
            2203            2459     77.2400E-03     79.5517E-03
            2207            2459     77.2400E-03     79.5517E-03
            2205            2460     117.411E-03     117.623E-03
            2204            2460     117.411E-03     117.623E-03
            2207            2460     117.411E-03     117.623E-03
            2208            2460     117.411E-03     117.623E-03
            2210            2461     79.3875E-03     84.2133E-03
            2207            2461     79.3875E-03     84.2133E-03
            2209            2461     79.3875E-03     84.2133E-03
            2206            2461     79.3875E-03     84.2133E-03
            2210            2462     125.938E-03     127.726E-03
            2207            2462     125.938E-03     127.726E-03
            2211            2462     125.938E-03     127.726E-03
            2208            2462     125.938E-03     127.726E-03
            2209            2463     74.3984E-03     76.0921E-03
            2212            2463     74.3984E-03     76.0921E-03
            2210            2463     74.3984E-03     76.0921E-03
            2213            2463     74.3984E-03     76.0921E-03
            2210            2464     131.384E-03     128.777E-03
            2211            2464     131.384E-03     128.777E-03
            2213            2464     131.384E-03     128.777E-03
            2214            2464     131.384E-03     128.777E-03
            2215            2465     75.3325E-03     69.8586E-03
            2213            2465     75.3325E-03     69.8586E-03
            2212            2465     75.3325E-03     69.8586E-03
            2216            2465     75.3325E-03     69.8586E-03
            2213            2466     124.205E-03     113.276E-03
            2214            2466     124.205E-03     113.276E-03
            2216            2466     124.205E-03     113.276E-03
            2217            2466     124.205E-03     113.276E-03
            2219            2467     81.9558E-03     76.1129E-03
            2218            2467     81.9558E-03     76.1129E-03
            2215            2467     81.9558E-03     76.1129E-03
            2216            2467     81.9558E-03     76.1129E-03
            2220            2468     122.829E-03     118.148E-03
            2219            2468     122.829E-03     118.148E-03
            2216            2468     122.829E-03     118.148E-03
            2217            2468     122.829E-03     118.148E-03
            2218            2469     83.6196E-03     82.9021E-03
            2221            2469     83.6196E-03     82.9021E-03
            2219            2469     83.6196E-03     82.9021E-03
            2222            2469     83.6196E-03     82.9021E-03
            2223            2470     132.726E-03     135.736E-03
            2222            2470     132.726E-03     135.736E-03
            2220            2470     132.726E-03     135.736E-03
            2219            2470     132.726E-03     135.736E-03
            2221            2471     86.8315E-03     90.0768E-03
            2225            2471     86.8315E-03     90.0768E-03
            2222            2471     86.8315E-03     90.0768E-03
            2224            2471     86.8315E-03     90.0768E-03
            2223            2472     139.867E-03     141.702E-03
            2226            2472     139.867E-03     141.702E-03
            2225            2472     139.867E-03     141.702E-03
            2222            2472     139.867E-03     141.702E-03
            2227            2473     88.8974E-03     94.7095E-03
            2228            2473     88.8974E-03     94.7095E-03
            2225            2473     88.8974E-03     94.7095E-03
            2224            2473     88.8974E-03     94.7095E-03
            2228            2474     148.751E-03     151.804E-03
            2225            2474     148.751E-03     151.804E-03
            2226            2474     148.751E-03     151.804E-03
            2229            2474     148.751E-03     151.804E-03
            2227            2475     83.2177E-03     84.8529E-03
            2231            2475     83.2177E-03     84.8529E-03
            2228            2475     83.2177E-03     84.8529E-03
            2230            2475     83.2177E-03     84.8529E-03
            2229            2476     153.873E-03     150.777E-03
            2231            2476     153.873E-03     150.777E-03
            2228            2476     153.873E-03     150.777E-03
            2232            2476     153.873E-03     150.777E-03
            2234            2477     75.1780E-03     73.4224E-03
            2230            2477     75.1780E-03     73.4224E-03
            2231            2477     75.1780E-03     73.4224E-03
            2233            2477     75.1780E-03     73.4224E-03
            2232            2478     145.855E-03     140.370E-03
            2235            2478     145.855E-03     140.370E-03
            2234            2478     145.855E-03     140.370E-03
            2231            2478     145.855E-03     140.370E-03
            2240            2479     181.809E-03     178.945E-03
            2239            2479     181.809E-03     178.945E-03
            2237            2479     181.809E-03     178.945E-03
            2236            2479     181.809E-03     178.945E-03
            2237            2480     117.628E-03     117.717E-03
            2238            2480     117.628E-03     117.717E-03
            2240            2480     117.628E-03     117.717E-03
            2241            2480     117.628E-03     117.717E-03
            2240            2481     194.249E-03     194.678E-03
            2243            2481     194.249E-03     194.678E-03
            2242            2481     194.249E-03     194.678E-03
            2239            2481     194.249E-03     194.678E-03
            2240            2482     142.559E-03     145.833E-03
            2243            2482     142.559E-03     145.833E-03
            2241            2482     142.559E-03     145.833E-03
            2244            2482     142.559E-03     145.833E-03
            2246            2483     178.537E-03     183.423E-03
            2245            2483     178.537E-03     183.423E-03
            2242            2483     178.537E-03     183.423E-03
            2243            2483     178.537E-03     183.423E-03
            2243            2484     151.190E-03     153.920E-03
            2244            2484     151.190E-03     153.920E-03
            2247            2484     151.190E-03     153.920E-03
            2246            2484     151.190E-03     153.920E-03
            2248            2485     155.943E-03     153.554E-03
            2245            2485     155.943E-03     153.554E-03
            2249            2485     155.943E-03     153.554E-03
            2246            2485     155.943E-03     153.554E-03
            2249            2486     149.646E-03     146.705E-03
            2247            2486     149.646E-03     146.705E-03
            2250            2486     149.646E-03     146.705E-03
            2246            2486     149.646E-03     146.705E-03
            2326            2539     152.155E-03     147.865E-03
            2329            2539     152.155E-03     147.865E-03
            2330            2539     152.155E-03     147.865E-03
            2327            2539     152.155E-03     147.865E-03
            2330            2540     95.4127E-03     90.1608E-03
            2328            2540     95.4127E-03     90.1608E-03
            2331            2540     95.4127E-03     90.1608E-03
            2327            2540     95.4127E-03     90.1608E-03
            2330            2541     162.481E-03     167.493E-03
            2332            2541     162.481E-03     167.493E-03
            2333            2541     162.481E-03     167.493E-03
            2329            2541     162.481E-03     167.493E-03
            2331            2542     97.5237E-03     100.464E-03
            2330            2542     97.5237E-03     100.464E-03
            2334            2542     97.5237E-03     100.464E-03
            2333            2542     97.5237E-03     100.464E-03
            2335            2543     171.161E-03     176.583E-03
            2333            2543     171.161E-03     176.583E-03
            2336            2543     171.161E-03     176.583E-03
            2332            2543     171.161E-03     176.583E-03
            2337            2544     98.7026E-03     105.931E-03
            2336            2544     98.7026E-03     105.931E-03
            2334            2544     98.7026E-03     105.931E-03
            2333            2544     98.7026E-03     105.931E-03
            2335            2545     175.631E-03     172.930E-03
            2339            2545     175.631E-03     172.930E-03
            2336            2545     175.631E-03     172.930E-03
            2338            2545     175.631E-03     172.930E-03
            2340            2546     91.9084E-03     93.4652E-03
            2337            2546     91.9084E-03     93.4652E-03
            2339            2546     91.9084E-03     93.4652E-03
            2336            2546     91.9084E-03     93.4652E-03
            2342            2547     133.729E-03     133.689E-03
            2344            2547     133.729E-03     133.689E-03
            2341            2547     133.729E-03     133.689E-03
            2345            2547     133.729E-03     133.689E-03
            2345            2548     150.580E-03     150.460E-03
            2342            2548     150.580E-03     150.460E-03
            2343            2548     150.580E-03     150.460E-03
            2346            2548     150.580E-03     150.460E-03
            2348            2549     134.892E-03     135.278E-03
            2345            2549     134.892E-03     135.278E-03
            2347            2549     134.892E-03     135.278E-03
            2344            2549     134.892E-03     135.278E-03
            2345            2550     150.420E-03     148.904E-03
            2346            2550     150.420E-03     148.904E-03
            2348            2550     150.420E-03     148.904E-03
            2349            2550     150.420E-03     148.904E-03
            2351            2551     132.318E-03     134.355E-03
            2350            2551     132.318E-03     134.355E-03
            2347            2551     132.318E-03     134.355E-03
            2348            2551     132.318E-03     134.355E-03
            2349            2552     152.976E-03     152.109E-03
            2352            2552     152.976E-03     152.109E-03
            2351            2552     152.976E-03     152.109E-03
            2348            2552     152.976E-03     152.109E-03
            2350            2553     138.519E-03     140.717E-03
            2354            2553     138.519E-03     140.717E-03
            2351            2553     138.519E-03     140.717E-03
            2353            2553     138.519E-03     140.717E-03
            2354            2554     137.232E-03     137.550E-03
            2352            2554     137.232E-03     137.550E-03
            2355            2554     137.232E-03     137.550E-03
            2351            2554     137.232E-03     137.550E-03
            2353            2555     136.013E-03     136.729E-03
            2357            2555     136.013E-03     136.729E-03
            2356            2555     136.013E-03     136.729E-03
            2354            2555     136.013E-03     136.729E-03
            2355            2556     121.627E-03     121.531E-03
            2358            2556     121.627E-03     121.531E-03
            2354            2556     121.627E-03     121.531E-03
            2357            2556     121.627E-03     121.531E-03
            2360            2557     133.145E-03     132.711E-03
            2357            2557     133.145E-03     132.711E-03
            2359            2557     133.145E-03     132.711E-03
            2356            2557     133.145E-03     132.711E-03
            2357            2558     111.360E-03     111.880E-03
            2358            2558     111.360E-03     111.880E-03
            2360            2558     111.360E-03     111.880E-03
            2361            2558     111.360E-03     111.880E-03
            2362            2559     130.947E-03     128.856E-03
            2359            2559     130.947E-03     128.856E-03
            2363            2559     130.947E-03     128.856E-03
            2360            2559     130.947E-03     128.856E-03
            2363            2560     105.949E-03     106.595E-03
            2360            2560     105.949E-03     106.595E-03
            2364            2560     105.949E-03     106.595E-03
            2361            2560     105.949E-03     106.595E-03
            2363            2561     126.383E-03     123.915E-03
            2366            2561     126.383E-03     123.915E-03
            2362            2561     126.383E-03     123.915E-03
            2365            2561     126.383E-03     123.915E-03
            2363            2562     105.843E-03     105.788E-03
            2366            2562     105.843E-03     105.788E-03
            2367            2562     105.843E-03     105.788E-03
            2364            2562     105.843E-03     105.788E-03
            2366            2563     92.9129E-03     91.7560E-03
            2365            2563     92.9129E-03     91.7560E-03
            2368            2563     92.9129E-03     91.7560E-03
            2369            2563     92.9129E-03     91.7560E-03
            2367            2564     84.5577E-03     84.0490E-03
            2366            2564     84.5577E-03     84.0490E-03
            2370            2564     84.5577E-03     84.0490E-03
            2369            2564     84.5577E-03     84.0490E-03
            2821            2917     1.25861E-15     1.14171E-15
            2824            2917     1.25861E-15     1.14171E-15
            2822            2917     1.25861E-15     1.14171E-15
            2825            2917     1.25861E-15     1.14171E-15
            2825            2918     1.13243E-15     1.27850E-15
            2823            2918     1.13243E-15     1.27850E-15
            2822            2918     1.13243E-15     1.27850E-15
            2826            2918     1.13243E-15     1.27850E-15
            2828            2919     1.67555E-15     837.840E-18
            2825            2919     1.67555E-15     837.840E-18
            2827            2919     1.67555E-15     837.840E-18
            2824            2919     1.67555E-15     837.840E-18
            2828            2920     1.42198E-15     1.41178E-15
            2829            2920     1.42198E-15     1.41178E-15
            2825            2920     1.42198E-15     1.41178E-15
            2826            2920     1.42198E-15     1.41178E-15
            2828            2921     2.64525E-15     1.51886E-15
            2830            2921     2.64525E-15     1.51886E-15
            2827            2921     2.64525E-15     1.51886E-15
            2831            2921     2.64525E-15     1.51886E-15
            2832            2922     1.65836E-15     1.41595E-15
            2829            2922     1.65836E-15     1.41595E-15
            2828            2922     1.65836E-15     1.41595E-15
            2831            2922     1.65836E-15     1.41595E-15
            2834            2923     2.20256E-15     1.86772E-15
            2831            2923     2.20256E-15     1.86772E-15
            2830            2923     2.20256E-15     1.86772E-15
            2833            2923     2.20256E-15     1.86772E-15
            2834            2924     1.54066E-15     1.40776E-15
            2831            2924     1.54066E-15     1.40776E-15
            2832            2924     1.54066E-15     1.40776E-15
            2835            2924     1.54066E-15     1.40776E-15
            2887            2961     1.35053E-15     1.55213E-15
            2886            2961     1.35053E-15     1.55213E-15
            2889            2961     1.35053E-15     1.55213E-15
            2890            2961     1.35053E-15     1.55213E-15
            2891            2962     1.53936E-15     2.06686E-15
            2887            2962     1.53936E-15     2.06686E-15
            2888            2962     1.53936E-15     2.06686E-15
            2890            2962     1.53936E-15     2.06686E-15
            2889            2963     1.14865E-15     1.45523E-15
            2890            2963     1.14865E-15     1.45523E-15
            2892            2963     1.14865E-15     1.45523E-15
            2893            2963     1.14865E-15     1.45523E-15
            2893            2964     1.68022E-15     2.14413E-15
            2894            2964     1.68022E-15     2.14413E-15
            2890            2964     1.68022E-15     2.14413E-15
            2891            2964     1.68022E-15     2.14413E-15
            2892            2965     1.30002E-15     1.30036E-15
            2896            2965     1.30002E-15     1.30036E-15
            2893            2965     1.30002E-15     1.30036E-15
            2895            2965     1.30002E-15     1.30036E-15
            2897            2966     1.25570E-15     1.50880E-15
            2893            2966     1.25570E-15     1.50880E-15
            2896            2966     1.25570E-15     1.50880E-15
            2894            2966     1.25570E-15     1.50880E-15
            2896            2967     1.27156E-15     1.20192E-15
            2895            2967     1.27156E-15     1.20192E-15
            2899            2967     1.27156E-15     1.20192E-15
            2898            2967     1.27156E-15     1.20192E-15
            2900            2968     1.68962E-15     1.85217E-15
            2897            2968     1.68962E-15     1.85217E-15
            2899            2968     1.68962E-15     1.85217E-15
            2896            2968     1.68962E-15     1.85217E-15
            2905            2969     117.628E-03     117.717E-03
            2901            2969     117.628E-03     117.717E-03
            2902            2969     117.628E-03     117.717E-03
            2904            2969     117.628E-03     117.717E-03
            2903            2970     181.809E-03     178.945E-03
            2906            2970     181.809E-03     178.945E-03
            2902            2970     181.809E-03     178.945E-03
            2905            2970     181.809E-03     178.945E-03
            2905            2971     142.559E-03     145.833E-03
            2904            2971     142.559E-03     145.833E-03
            2907            2971     142.559E-03     145.833E-03
            2908            2971     142.559E-03     145.833E-03
            2909            2972     194.249E-03     194.678E-03
            2908            2972     194.249E-03     194.678E-03
            2905            2972     194.249E-03     194.678E-03
            2906            2972     194.249E-03     194.678E-03
            2911            2973     151.190E-03     153.920E-03
            2908            2973     151.190E-03     153.920E-03
            2910            2973     151.190E-03     153.920E-03
            2907            2973     151.190E-03     153.920E-03
            2908            2974     178.537E-03     183.423E-03
            2909            2974     178.537E-03     183.423E-03
            2911            2974     178.537E-03     183.423E-03
            2912            2974     178.537E-03     183.423E-03
            2910            2975     149.646E-03     146.705E-03
            2913            2975     149.646E-03     146.705E-03
            2914            2975     149.646E-03     146.705E-03
            2911            2975     149.646E-03     146.705E-03
            2914            2976     155.943E-03     153.554E-03
            2912            2976     155.943E-03     153.554E-03
            2915            2976     155.943E-03     153.554E-03
            2911            2976     155.943E-03     153.554E-03
            2942            2993     150.580E-03     150.460E-03
            2945            2993     150.580E-03     150.460E-03
            2941            2993     150.580E-03     150.460E-03
            2944            2993     150.580E-03     150.460E-03
            2945            2994     133.729E-03     133.689E-03
            2946            2994     133.729E-03     133.689E-03
            2942            2994     133.729E-03     133.689E-03
            2943            2994     133.729E-03     133.689E-03
            2948            2995     150.420E-03     148.904E-03
            2947            2995     150.420E-03     148.904E-03
            2944            2995     150.420E-03     148.904E-03
            2945            2995     150.420E-03     148.904E-03
            2948            2996     134.892E-03     135.278E-03
            2945            2996     134.892E-03     135.278E-03
            2949            2996     134.892E-03     135.278E-03
            2946            2996     134.892E-03     135.278E-03
            2950            2997     152.976E-03     152.109E-03
            2947            2997     152.976E-03     152.109E-03
            2951            2997     152.976E-03     152.109E-03
            2948            2997     152.976E-03     152.109E-03
            2948            2998     132.318E-03     134.355E-03
            2951            2998     132.318E-03     134.355E-03
            2949            2998     132.318E-03     134.355E-03
            2952            2998     132.318E-03     134.355E-03
            2951            2999     137.232E-03     137.550E-03
            2953            2999     137.232E-03     137.550E-03
            2950            2999     137.232E-03     137.550E-03
            2954            2999     137.232E-03     137.550E-03
            2952            3000     138.519E-03     140.717E-03
            2954            3000     138.519E-03     140.717E-03
            2951            3000     138.519E-03     140.717E-03
            2955            3000     138.519E-03     140.717E-03
            2957            3001     121.627E-03     121.531E-03
            2954            3001     121.627E-03     121.531E-03
            2956            3001     121.627E-03     121.531E-03
            2953            3001     121.627E-03     121.531E-03
            2955            3002     136.013E-03     136.729E-03
            2957            3002     136.013E-03     136.729E-03
            2958            3002     136.013E-03     136.729E-03
            2954            3002     136.013E-03     136.729E-03
            2959            3003     111.360E-03     111.880E-03
            2957            3003     111.360E-03     111.880E-03
            2960            3003     111.360E-03     111.880E-03
            2956            3003     111.360E-03     111.880E-03
            2960            3004     133.145E-03     132.711E-03
            2958            3004     133.145E-03     132.711E-03
            2961            3004     133.145E-03     132.711E-03
            2957            3004     133.145E-03     132.711E-03
            2959            3005     105.949E-03     106.595E-03
            2962            3005     105.949E-03     106.595E-03
            2960            3005     105.949E-03     106.595E-03
            2963            3005     105.949E-03     106.595E-03
            2963            3006     130.947E-03     128.856E-03
            2961            3006     130.947E-03     128.856E-03
            2964            3006     130.947E-03     128.856E-03
            2960            3006     130.947E-03     128.856E-03
            2963            3007     105.843E-03     105.788E-03
            2966            3007     105.843E-03     105.788E-03
            2965            3007     105.843E-03     105.788E-03
            2962            3007     105.843E-03     105.788E-03
            2964            3008     126.383E-03     123.915E-03
            2966            3008     126.383E-03     123.915E-03
            2963            3008     126.383E-03     123.915E-03
            2967            3008     126.383E-03     123.915E-03
            2966            3009     84.5577E-03     84.0490E-03
            2965            3009     84.5577E-03     84.0490E-03
            2968            3009     84.5577E-03     84.0490E-03
            2969            3009     84.5577E-03     84.0490E-03
            2967            3010     92.9129E-03     91.7560E-03
            2970            3010     92.9129E-03     91.7560E-03
            2966            3010     92.9129E-03     91.7560E-03
            2969            3010     92.9129E-03     91.7560E-03


  Minimum                            1.01405E-15     837.840E-18
      At Element                            2892            2828
            Node                             596            2919

  Maximum                            226.689E-03     222.900E-03
      At Element                            2909            2909
            Node                             401             401

           Total                         128.581         127.746


