********************************************************************************
Field Output Report, written Fri Feb 15 18:41:35 2019

Source 1
---------

   ODB: C:/Scratch/F100-19.odb
   Step: Jam2
   Frame: Increment      1: Step Time =    1.000

Loc 1 : Element nodal  values at shell < ALUMINIUM > < 5 section points > from source 1 : SNEG, (fraction = -1.0) ( Average criteria = 75%, Not averaged across region boundaries )
Loc 2 : Element nodal  values at shell < ALUMINIUM > < 5 section points > from source 1 : SPOS, (fraction = 1.0) ( Average criteria = 75%, Not averaged across region boundaries )

Output sorted by column "Node Label".

Field Output reported at element nodes for region: F100-1.Region_1
   Computation algorithm: EXTRAPOLATE_COMPUTE_AVERAGE
   Averaged at nodes
   Averaging regions: ODB_REGIONS

   Element Label      Node Label         S.Mises         S.Mises
                                          @Loc 1          @Loc 2
-----------------------------------------------------------------
            1132               1     4.37531E-03     4.47285E-03
            2387               1     4.37531E-03     4.47285E-03
             596               1     4.37531E-03     4.47285E-03
               1               1     4.37531E-03     4.47285E-03
             685               2     2.75214E-03     3.99854E-03
            1956               2     2.75214E-03     3.99854E-03
            2371               2     2.75214E-03     3.99854E-03
              17               2     2.75214E-03     3.99854E-03
             595               3     205.373E-03     211.336E-03
            2126               3     205.373E-03     211.336E-03
            1736               3     205.373E-03     211.336E-03
            1047               3     205.373E-03     211.336E-03
             579               4     52.1057E-03     62.2544E-03
            1710               4     52.1057E-03     62.2544E-03
            1777               4     52.1057E-03     62.2544E-03
            1031               4     52.1057E-03     62.2544E-03
             612               5     2.90885E-03     4.26653E-03
            1711               5     2.90885E-03     4.26653E-03
             710               5     2.90885E-03     4.26653E-03
            1116               5     2.90885E-03     4.26653E-03
            1731               6     115.030E-06     191.153E-06
             680               6     115.030E-06     191.153E-06
            2455               7     238.778E-06     284.247E-06
             664               7     238.778E-06     284.247E-06
            1960               8     21.0533E-03     20.7851E-03
             706               8     21.0533E-03     20.7851E-03
            1715               8     21.0533E-03     20.7851E-03
             681               8     21.0533E-03     20.7851E-03
            2439               9     115.030E-06     191.153E-06
             705               9     115.030E-06     191.153E-06
            1735              10     491.176E-06     483.625E-06
             701              10     491.176E-06     483.625E-06
             880              11     192.205E-03     201.612E-03
            1761              11     192.205E-03     201.612E-03
            2800              11     192.205E-03     201.612E-03
            1694              11     192.205E-03     201.612E-03
             876              12     38.3929E-03     40.0144E-03
            2796              12     38.3929E-03     40.0144E-03
            1740              12     38.3929E-03     40.0144E-03
            2130              12     38.3929E-03     40.0144E-03
            1756              16     232.475E-03     246.531E-03
            1115              16     232.475E-03     246.531E-03
            2251              16     232.475E-03     246.531E-03
            1862              16     232.475E-03     246.531E-03
            1846              18     36.8066E-03     43.7898E-03
            2727              18     36.8066E-03     43.7898E-03
            1099              18     36.8066E-03     43.7898E-03
            1845              18     36.8066E-03     43.7898E-03
            2816              19     60.4613E-03     64.2778E-03
            1931              19     60.4613E-03     64.2778E-03
            2255              19     60.4613E-03     64.2778E-03
            1760              19     60.4613E-03     64.2778E-03
            1829              20     259.420E-03     269.651E-03
            2820              20     259.420E-03     269.651E-03
            1935              20     259.420E-03     269.651E-03
            2711              20     259.420E-03     269.651E-03
            3072              21     148.125E-03     155.086E-03
            1930              21     148.125E-03     155.086E-03
            2271              21     148.125E-03     155.086E-03
            2836              21     148.125E-03     155.086E-03
            2795              22     29.1056E-03     34.0209E-03
            2472              22     29.1056E-03     34.0209E-03
            1914              22     29.1056E-03     34.0209E-03
            3056              22     29.1056E-03     34.0209E-03
            2456              23     152.861E-03     160.090E-03
            2779              23     152.861E-03     160.090E-03
            2280              23     152.861E-03     160.090E-03
            1955              23     152.861E-03     160.090E-03
            2275              24     119.434E-03     119.476E-03
            2276              24     119.434E-03     119.476E-03
            2840              24     119.434E-03     119.476E-03
            1951              24     119.434E-03     119.476E-03
            2971              26     7.62087E-03     7.76889E-03
            2609              26     7.62087E-03     7.76889E-03
            3230              26     7.62087E-03     7.76889E-03
            2325              26     7.62087E-03     7.76889E-03
            2885              27     38.2238E-03     38.3504E-03
            2321              27     38.2238E-03     38.3504E-03
            3226              27     38.2238E-03     38.3504E-03
            2920              27     38.2238E-03     38.3504E-03
            2642              28     10.5317E-03     10.7289E-03
            3225              28     10.5317E-03     10.7289E-03
            2881              28     10.5317E-03     10.7289E-03
            2916              28     10.5317E-03     10.7289E-03
            3209              30     2.50377E-03     2.52474E-03
            2626              30     2.50377E-03     2.52474E-03
            2625              30     2.50377E-03     2.52474E-03
            2987              30     2.50377E-03     2.52474E-03
            2710              31     115.155E-06     188.856E-06
            2936              31     115.155E-06     188.856E-06
            2694              32     240.921E-06     286.346E-06
            3055              32     240.921E-06     286.346E-06
            3250              34     115.155E-06     188.856E-06
            3039              34     115.155E-06     188.856E-06
            3246              35     493.132E-06     485.452E-06
            2940              35     493.132E-06     485.452E-06
            2387              36     6.39960E-03     6.28945E-03
               2              36     6.39960E-03     6.28945E-03
               1              36     6.39960E-03     6.28945E-03
            2386              36     6.39960E-03     6.28945E-03
            2385              37     6.77888E-03     6.76719E-03
            2386              37     6.77888E-03     6.76719E-03
               3              37     6.77888E-03     6.76719E-03
               2              37     6.77888E-03     6.76719E-03
               4              38     6.75876E-03     6.59873E-03
            2385              38     6.75876E-03     6.59873E-03
               3              38     6.75876E-03     6.59873E-03
            2384              38     6.75876E-03     6.59873E-03
            2384              39     6.84689E-03     6.60106E-03
               4              39     6.84689E-03     6.60106E-03
               5              39     6.84689E-03     6.60106E-03
            2383              39     6.84689E-03     6.60106E-03
               5              40     6.90907E-03     6.56046E-03
               6              40     6.90907E-03     6.56046E-03
            2383              40     6.90907E-03     6.56046E-03
            2382              40     6.90907E-03     6.56046E-03
               6              41     6.98486E-03     6.53738E-03
            2382              41     6.98486E-03     6.53738E-03
               7              41     6.98486E-03     6.53738E-03
            2381              41     6.98486E-03     6.53738E-03
               8              42     7.06310E-03     6.51749E-03
               7              42     7.06310E-03     6.51749E-03
            2381              42     7.06310E-03     6.51749E-03
            2380              42     7.06310E-03     6.51749E-03
            2380              43     7.14802E-03     6.50392E-03
            2379              43     7.14802E-03     6.50392E-03
               8              43     7.14802E-03     6.50392E-03
               9              43     7.14802E-03     6.50392E-03
            2379              44     7.23689E-03     6.49765E-03
            2378              44     7.23689E-03     6.49765E-03
              10              44     7.23689E-03     6.49765E-03
               9              44     7.23689E-03     6.49765E-03
              10              45     7.33131E-03     6.49548E-03
            2378              45     7.33131E-03     6.49548E-03
              11              45     7.33131E-03     6.49548E-03
            2377              45     7.33131E-03     6.49548E-03
            2377              46     7.43308E-03     6.50448E-03
              11              46     7.43308E-03     6.50448E-03
              12              46     7.43308E-03     6.50448E-03
            2376              46     7.43308E-03     6.50448E-03
            2376              47     7.52295E-03     6.50488E-03
            2375              47     7.52295E-03     6.50488E-03
              13              47     7.52295E-03     6.50488E-03
              12              47     7.52295E-03     6.50488E-03
              13              48     7.68039E-03     6.56021E-03
            2375              48     7.68039E-03     6.56021E-03
            2374              48     7.68039E-03     6.56021E-03
              14              48     7.68039E-03     6.56021E-03
            2373              49     7.59508E-03     6.43254E-03
              14              49     7.59508E-03     6.43254E-03
              15              49     7.59508E-03     6.43254E-03
            2374              49     7.59508E-03     6.43254E-03
              15              50     8.38770E-03     7.02818E-03
            2373              50     8.38770E-03     7.02818E-03
            2372              50     8.38770E-03     7.02818E-03
              16              50     8.38770E-03     7.02818E-03
              17              51     6.01778E-03     5.65677E-03
            2372              51     6.01778E-03     5.65677E-03
            2371              51     6.01778E-03     5.65677E-03
              16              51     6.01778E-03     5.65677E-03
            1961              52     8.30978E-03     12.8535E-03
              34              52     8.30978E-03     12.8535E-03
              17              52     8.30978E-03     12.8535E-03
            1956              52     8.30978E-03     12.8535E-03
            1966              53     8.67247E-03     11.8056E-03
              34              53     8.67247E-03     11.8056E-03
              51              53     8.67247E-03     11.8056E-03
            1961              53     8.67247E-03     11.8056E-03
              51              54     9.49301E-03     10.8806E-03
            1966              54     9.49301E-03     10.8806E-03
              68              54     9.49301E-03     10.8806E-03
            1971              54     9.49301E-03     10.8806E-03
              68              55     20.7702E-03     20.3753E-03
              85              55     20.7702E-03     20.3753E-03
            1971              55     20.7702E-03     20.3753E-03
            1976              55     20.7702E-03     20.3753E-03
              85              56     30.8045E-03     31.9999E-03
            1976              56     30.8045E-03     31.9999E-03
            1981              56     30.8045E-03     31.9999E-03
             102              56     30.8045E-03     31.9999E-03
            1981              57     42.9509E-03     42.1151E-03
             102              57     42.9509E-03     42.1151E-03
             119              57     42.9509E-03     42.1151E-03
            1986              57     42.9509E-03     42.1151E-03
            1991              58     53.9001E-03     54.3971E-03
             136              58     53.9001E-03     54.3971E-03
             119              58     53.9001E-03     54.3971E-03
            1986              58     53.9001E-03     54.3971E-03
            1996              59     47.4495E-03     50.6006E-03
             136              59     47.4495E-03     50.6006E-03
            1991              59     47.4495E-03     50.6006E-03
             153              59     47.4495E-03     50.6006E-03
            2001              60     45.2377E-03     42.8797E-03
            1996              60     45.2377E-03     42.8797E-03
             153              60     45.2377E-03     42.8797E-03
             170              60     45.2377E-03     42.8797E-03
            2001              61     55.2978E-03     55.8319E-03
             170              61     55.2978E-03     55.8319E-03
            2006              61     55.2978E-03     55.8319E-03
             187              61     55.2978E-03     55.8319E-03
            2006              62     66.7124E-03     65.9778E-03
            2011              62     66.7124E-03     65.9778E-03
             187              62     66.7124E-03     65.9778E-03
             204              62     66.7124E-03     65.9778E-03
            2011              63     75.4026E-03     77.9802E-03
             221              63     75.4026E-03     77.9802E-03
            2016              63     75.4026E-03     77.9802E-03
             204              63     75.4026E-03     77.9802E-03
             238              64     88.9014E-03     87.5109E-03
            2016              64     88.9014E-03     87.5109E-03
            2021              64     88.9014E-03     87.5109E-03
             221              64     88.9014E-03     87.5109E-03
             255              65     100.151E-03     99.9649E-03
            2021              65     100.151E-03     99.9649E-03
            2026              65     100.151E-03     99.9649E-03
             238              65     100.151E-03     99.9649E-03
             255              66     91.1915E-03     96.9512E-03
            2026              66     91.1915E-03     96.9512E-03
             272              66     91.1915E-03     96.9512E-03
            2031              66     91.1915E-03     96.9512E-03
             272              67     89.6000E-03     87.5767E-03
             289              67     89.6000E-03     87.5767E-03
            2036              67     89.6000E-03     87.5767E-03
            2031              67     89.6000E-03     87.5767E-03
            2036              68     101.842E-03     99.5629E-03
             289              68     101.842E-03     99.5629E-03
             306              68     101.842E-03     99.5629E-03
            2041              68     101.842E-03     99.5629E-03
             306              69     109.887E-03     114.446E-03
            2041              69     109.887E-03     114.446E-03
            2046              69     109.887E-03     114.446E-03
             323              69     109.887E-03     114.446E-03
            2051              70     125.815E-03     123.220E-03
             340              70     125.815E-03     123.220E-03
             323              70     125.815E-03     123.220E-03
            2046              70     125.815E-03     123.220E-03
             340              71     137.551E-03     137.070E-03
            2051              71     137.551E-03     137.070E-03
            2056              71     137.551E-03     137.070E-03
             357              71     137.551E-03     137.070E-03
            2056              72     127.944E-03     136.170E-03
             374              72     127.944E-03     136.170E-03
            2061              72     127.944E-03     136.170E-03
             357              72     127.944E-03     136.170E-03
             391              73     128.938E-03     124.865E-03
            2061              73     128.938E-03     124.865E-03
            2066              73     128.938E-03     124.865E-03
             374              73     128.938E-03     124.865E-03
            2071              74     138.775E-03     138.818E-03
             408              74     138.775E-03     138.818E-03
             391              74     138.775E-03     138.818E-03
            2066              74     138.775E-03     138.818E-03
            2076              75     149.508E-03     149.861E-03
             408              75     149.508E-03     149.861E-03
            2071              75     149.508E-03     149.861E-03
             425              75     149.508E-03     149.861E-03
             442              76     158.721E-03     162.580E-03
            2076              76     158.721E-03     162.580E-03
             425              76     158.721E-03     162.580E-03
            2081              76     158.721E-03     162.580E-03
            2081              77     174.376E-03     172.409E-03
            2086              77     174.376E-03     172.409E-03
             442              77     174.376E-03     172.409E-03
             459              77     174.376E-03     172.409E-03
             476              78     187.097E-03     185.374E-03
             459              78     187.097E-03     185.374E-03
            2091              78     187.097E-03     185.374E-03
            2086              78     187.097E-03     185.374E-03
             493              79     174.111E-03     185.151E-03
            2091              79     174.111E-03     185.151E-03
             476              79     174.111E-03     185.151E-03
            2096              79     174.111E-03     185.151E-03
            2101              80     175.073E-03     171.980E-03
             493              80     175.073E-03     171.980E-03
             510              80     175.073E-03     171.980E-03
            2096              80     175.073E-03     171.980E-03
            2106              81     188.054E-03     183.896E-03
             527              81     188.054E-03     183.896E-03
            2101              81     188.054E-03     183.896E-03
             510              81     188.054E-03     183.896E-03
             527              82     193.691E-03     201.778E-03
            2106              82     193.691E-03     201.778E-03
            2111              82     193.691E-03     201.778E-03
             544              82     193.691E-03     201.778E-03
            2116              83     213.349E-03     208.876E-03
            2111              83     213.349E-03     208.876E-03
             561              83     213.349E-03     208.876E-03
             544              83     213.349E-03     208.876E-03
            2121              84     225.672E-03     224.211E-03
             561              84     225.672E-03     224.211E-03
            2116              84     225.672E-03     224.211E-03
             578              84     225.672E-03     224.211E-03
            2126              85     213.130E-03     224.946E-03
             595              85     213.130E-03     224.946E-03
             578              85     213.130E-03     224.946E-03
            2121              85     213.130E-03     224.946E-03
             595              86     200.790E-03     200.742E-03
            1046              86     200.790E-03     200.742E-03
             594              86     200.790E-03     200.742E-03
            1047              86     200.790E-03     200.742E-03
             594              87     191.699E-03     190.406E-03
            1045              87     191.699E-03     190.406E-03
             593              87     191.699E-03     190.406E-03
            1046              87     191.699E-03     190.406E-03
            1045              88     180.396E-03     178.939E-03
             593              88     180.396E-03     178.939E-03
            1044              88     180.396E-03     178.939E-03
             592              88     180.396E-03     178.939E-03
             591              89     168.174E-03     166.302E-03
             592              89     168.174E-03     166.302E-03
            1043              89     168.174E-03     166.302E-03
            1044              89     168.174E-03     166.302E-03
            1043              90     155.474E-03     152.924E-03
             590              90     155.474E-03     152.924E-03
            1042              90     155.474E-03     152.924E-03
             591              90     155.474E-03     152.924E-03
            1041              91     142.487E-03     139.288E-03
             589              91     142.487E-03     139.288E-03
             590              91     142.487E-03     139.288E-03
            1042              91     142.487E-03     139.288E-03
             589              92     129.451E-03     125.490E-03
             588              92     129.451E-03     125.490E-03
            1041              92     129.451E-03     125.490E-03
            1040              92     129.451E-03     125.490E-03
            1039              93     116.276E-03     111.578E-03
             587              93     116.276E-03     111.578E-03
            1040              93     116.276E-03     111.578E-03
             588              93     116.276E-03     111.578E-03
            1038              94     103.080E-03     97.6509E-03
             586              94     103.080E-03     97.6509E-03
             587              94     103.080E-03     97.6509E-03
            1039              94     103.080E-03     97.6509E-03
            1038              95     89.8417E-03     83.7305E-03
             585              95     89.8417E-03     83.7305E-03
            1037              95     89.8417E-03     83.7305E-03
             586              95     89.8417E-03     83.7305E-03
             585              96     76.6420E-03     69.8987E-03
            1036              96     76.6420E-03     69.8987E-03
             584              96     76.6420E-03     69.8987E-03
            1037              96     76.6420E-03     69.8987E-03
             584              97     63.4858E-03     56.2465E-03
            1035              97     63.4858E-03     56.2465E-03
             583              97     63.4858E-03     56.2465E-03
            1036              97     63.4858E-03     56.2465E-03
            1035              98     50.4708E-03     43.0526E-03
             582              98     50.4708E-03     43.0526E-03
            1034              98     50.4708E-03     43.0526E-03
             583              98     50.4708E-03     43.0526E-03
             582              99     37.4306E-03     30.7457E-03
            1034              99     37.4306E-03     30.7457E-03
             581              99     37.4306E-03     30.7457E-03
            1033              99     37.4306E-03     30.7457E-03
             580             100     25.3707E-03     22.6382E-03
             581             100     25.3707E-03     22.6382E-03
            1032             100     25.3707E-03     22.6382E-03
            1033             100     25.3707E-03     22.6382E-03
            1032             101     24.5242E-03     34.8555E-03
             579             101     24.5242E-03     34.8555E-03
            1031             101     24.5242E-03     34.8555E-03
             580             101     24.5242E-03     34.8555E-03
            1710             102     22.3798E-03     22.7194E-03
            1693             102     22.3798E-03     22.7194E-03
             579             102     22.3798E-03     22.7194E-03
             562             102     22.3798E-03     22.7194E-03
            1676             103     23.2206E-03     23.3741E-03
            1693             103     23.2206E-03     23.3741E-03
             545             103     23.2206E-03     23.3741E-03
             562             103     23.2206E-03     23.3741E-03
             545             104     20.7195E-03     20.9683E-03
            1676             104     20.7195E-03     20.9683E-03
             528             104     20.7195E-03     20.9683E-03
            1659             104     20.7195E-03     20.9683E-03
             511             105     22.0238E-03     21.3228E-03
            1642             105     22.0238E-03     21.3228E-03
            1659             105     22.0238E-03     21.3228E-03
             528             105     22.0238E-03     21.3228E-03
             511             106     25.5575E-03     26.5234E-03
             494             106     25.5575E-03     26.5234E-03
            1642             106     25.5575E-03     26.5234E-03
            1625             106     25.5575E-03     26.5234E-03
             477             107     28.3036E-03     33.3601E-03
            1625             107     28.3036E-03     33.3601E-03
            1608             107     28.3036E-03     33.3601E-03
             494             107     28.3036E-03     33.3601E-03
            1608             108     25.4750E-03     28.7113E-03
             460             108     25.4750E-03     28.7113E-03
            1591             108     25.4750E-03     28.7113E-03
             477             108     25.4750E-03     28.7113E-03
             460             109     19.8905E-03     20.0733E-03
            1591             109     19.8905E-03     20.0733E-03
            1574             109     19.8905E-03     20.0733E-03
             443             109     19.8905E-03     20.0733E-03
            1574             110     17.6220E-03     17.2281E-03
             426             110     17.6220E-03     17.2281E-03
             443             110     17.6220E-03     17.2281E-03
            1557             110     17.6220E-03     17.2281E-03
             426             111     17.9675E-03     17.8949E-03
            1540             111     17.9675E-03     17.8949E-03
            1557             111     17.9675E-03     17.8949E-03
             409             111     17.9675E-03     17.8949E-03
             409             112     20.2599E-03     19.6668E-03
             392             112     20.2599E-03     19.6668E-03
            1540             112     20.2599E-03     19.6668E-03
            1523             112     20.2599E-03     19.6668E-03
            1506             113     23.6100E-03     24.4812E-03
             392             113     23.6100E-03     24.4812E-03
             375             113     23.6100E-03     24.4812E-03
            1523             113     23.6100E-03     24.4812E-03
             375             114     25.7460E-03     30.4082E-03
             358             114     25.7460E-03     30.4082E-03
            1506             114     25.7460E-03     30.4082E-03
            1489             114     25.7460E-03     30.4082E-03
            1489             115     21.4773E-03     24.5879E-03
             358             115     21.4773E-03     24.5879E-03
            1472             115     21.4773E-03     24.5879E-03
             341             115     21.4773E-03     24.5879E-03
            1455             116     15.7249E-03     15.4754E-03
            1472             116     15.7249E-03     15.4754E-03
             341             116     15.7249E-03     15.4754E-03
             324             116     15.7249E-03     15.4754E-03
            1438             117     14.5107E-03     14.2814E-03
            1455             117     14.5107E-03     14.2814E-03
             324             117     14.5107E-03     14.2814E-03
             307             117     14.5107E-03     14.2814E-03
            1421             118     15.6186E-03     14.7291E-03
             290             118     15.6186E-03     14.7291E-03
             307             118     15.6186E-03     14.7291E-03
            1438             118     15.6186E-03     14.7291E-03
             290             119     17.8550E-03     17.9665E-03
            1404             119     17.8550E-03     17.9665E-03
             273             119     17.8550E-03     17.9665E-03
            1421             119     17.8550E-03     17.9665E-03
            1387             120     19.1143E-03     22.2649E-03
             256             120     19.1143E-03     22.2649E-03
            1404             120     19.1143E-03     22.2649E-03
             273             120     19.1143E-03     22.2649E-03
            1370             121     16.4164E-03     18.6458E-03
             256             121     16.4164E-03     18.6458E-03
             239             121     16.4164E-03     18.6458E-03
            1387             121     16.4164E-03     18.6458E-03
             222             122     12.7498E-03     12.8685E-03
             239             122     12.7498E-03     12.8685E-03
            1353             122     12.7498E-03     12.8685E-03
            1370             122     12.7498E-03     12.8685E-03
             222             123     12.1221E-03     11.3887E-03
             205             123     12.1221E-03     11.3887E-03
            1353             123     12.1221E-03     11.3887E-03
            1336             123     12.1221E-03     11.3887E-03
             188             124     12.5995E-03     12.0071E-03
            1319             124     12.5995E-03     12.0071E-03
            1336             124     12.5995E-03     12.0071E-03
             205             124     12.5995E-03     12.0071E-03
            1302             125     13.8940E-03     12.8839E-03
             188             125     13.8940E-03     12.8839E-03
            1319             125     13.8940E-03     12.8839E-03
             171             125     13.8940E-03     12.8839E-03
            1302             126     15.5840E-03     15.4112E-03
             154             126     15.5840E-03     15.4112E-03
            1285             126     15.5840E-03     15.4112E-03
             171             126     15.5840E-03     15.4112E-03
             137             127     16.1419E-03     18.8151E-03
             154             127     16.1419E-03     18.8151E-03
            1268             127     16.1419E-03     18.8151E-03
            1285             127     16.1419E-03     18.8151E-03
            1251             128     12.9248E-03     15.6805E-03
            1268             128     12.9248E-03     15.6805E-03
             120             128     12.9248E-03     15.6805E-03
             137             128     12.9248E-03     15.6805E-03
             120             129     10.2516E-03     10.6478E-03
            1251             129     10.2516E-03     10.6478E-03
             103             129     10.2516E-03     10.6478E-03
            1234             129     10.2516E-03     10.6478E-03
             103             130     10.5198E-03     9.51937E-03
              86             130     10.5198E-03     9.51937E-03
            1234             130     10.5198E-03     9.51937E-03
            1217             130     10.5198E-03     9.51937E-03
              69             131     10.8485E-03     9.40290E-03
              86             131     10.8485E-03     9.40290E-03
            1200             131     10.8485E-03     9.40290E-03
            1217             131     10.8485E-03     9.40290E-03
            1200             132     11.6330E-03     10.7004E-03
              52             132     11.6330E-03     10.7004E-03
            1183             132     11.6330E-03     10.7004E-03
              69             132     11.6330E-03     10.7004E-03
              52             133     11.4770E-03     12.8341E-03
              35             133     11.4770E-03     12.8341E-03
            1166             133     11.4770E-03     12.8341E-03
            1183             133     11.4770E-03     12.8341E-03
            1149             134     9.65282E-03     11.3683E-03
            1166             134     9.65282E-03     11.3683E-03
              35             134     9.65282E-03     11.3683E-03
              18             134     9.65282E-03     11.3683E-03
            1132             135     8.44090E-03     8.92448E-03
               1             135     8.44090E-03     8.92448E-03
              18             135     8.44090E-03     8.92448E-03
            1149             135     8.44090E-03     8.92448E-03
             597             136     2.85288E-03     2.51994E-03
             596             136     2.85288E-03     2.51994E-03
            1131             136     2.85288E-03     2.51994E-03
            1132             136     2.85288E-03     2.51994E-03
            1131             137     2.90985E-03     1.85580E-03
             598             137     2.90985E-03     1.85580E-03
            1130             137     2.90985E-03     1.85580E-03
             597             137     2.90985E-03     1.85580E-03
            1130             138     3.00521E-03     1.90951E-03
             599             138     3.00521E-03     1.90951E-03
            1129             138     3.00521E-03     1.90951E-03
             598             138     3.00521E-03     1.90951E-03
             600             139     3.14479E-03     1.78728E-03
            1128             139     3.14479E-03     1.78728E-03
             599             139     3.14479E-03     1.78728E-03
            1129             139     3.14479E-03     1.78728E-03
            1128             140     3.27633E-03     1.72541E-03
             601             140     3.27633E-03     1.72541E-03
             600             140     3.27633E-03     1.72541E-03
            1127             140     3.27633E-03     1.72541E-03
            1126             141     3.41373E-03     1.66118E-03
            1127             141     3.41373E-03     1.66118E-03
             601             141     3.41373E-03     1.66118E-03
             602             141     3.41373E-03     1.66118E-03
            1125             142     3.55131E-03     1.61317E-03
            1126             142     3.55131E-03     1.61317E-03
             603             142     3.55131E-03     1.61317E-03
             602             142     3.55131E-03     1.61317E-03
             603             143     3.69147E-03     1.57747E-03
            1125             143     3.69147E-03     1.57747E-03
             604             143     3.69147E-03     1.57747E-03
            1124             143     3.69147E-03     1.57747E-03
             605             144     3.83218E-03     1.55787E-03
            1123             144     3.83218E-03     1.55787E-03
             604             144     3.83218E-03     1.55787E-03
            1124             144     3.83218E-03     1.55787E-03
            1122             145     3.97479E-03     1.55154E-03
            1123             145     3.97479E-03     1.55154E-03
             606             145     3.97479E-03     1.55154E-03
             605             145     3.97479E-03     1.55154E-03
             607             146     4.12076E-03     1.56631E-03
            1121             146     4.12076E-03     1.56631E-03
            1122             146     4.12076E-03     1.56631E-03
             606             146     4.12076E-03     1.56631E-03
            1120             147     4.25414E-03     1.57979E-03
            1121             147     4.25414E-03     1.57979E-03
             607             147     4.25414E-03     1.57979E-03
             608             147     4.25414E-03     1.57979E-03
            1120             148     4.44259E-03     1.66541E-03
             608             148     4.44259E-03     1.66541E-03
             609             148     4.44259E-03     1.66541E-03
            1119             148     4.44259E-03     1.66541E-03
             610             149     4.42435E-03     1.54496E-03
            1118             149     4.42435E-03     1.54496E-03
            1119             149     4.42435E-03     1.54496E-03
             609             149     4.42435E-03     1.54496E-03
            1117             150     5.18038E-03     2.26020E-03
            1118             150     5.18038E-03     2.26020E-03
             611             150     5.18038E-03     2.26020E-03
             610             150     5.18038E-03     2.26020E-03
             612             151     4.63691E-03     3.56710E-03
            1117             151     4.63691E-03     3.56710E-03
             611             151     4.63691E-03     3.56710E-03
            1116             151     4.63691E-03     3.56710E-03
            1711             152     449.513E-06     468.698E-06
            1716             152     449.513E-06     468.698E-06
             612             152     449.513E-06     468.698E-06
             629             152     449.513E-06     468.698E-06
             629             153     308.145E-06     291.728E-06
            1721             153     308.145E-06     291.728E-06
             646             153     308.145E-06     291.728E-06
            1716             153     308.145E-06     291.728E-06
            1721             154     149.939E-06     172.302E-06
             646             154     149.939E-06     172.302E-06
            1726             154     149.939E-06     172.302E-06
             663             154     149.939E-06     172.302E-06
            1726             155     107.875E-06     151.031E-06
             663             155     107.875E-06     151.031E-06
            1731             155     107.875E-06     151.031E-06
             680             155     107.875E-06     151.031E-06
             679             156     151.565E-06     166.166E-06
             680             156     151.565E-06     166.166E-06
             678             157     247.745E-06     208.532E-06
             679             157     247.745E-06     208.532E-06
             678             158     285.280E-06     250.969E-06
             677             158     285.280E-06     250.969E-06
             676             159     306.112E-06     272.076E-06
             677             159     306.112E-06     272.076E-06
             676             160     308.380E-06     275.257E-06
             675             160     308.380E-06     275.257E-06
             675             161     306.663E-06     274.779E-06
             674             161     306.663E-06     274.779E-06
             674             162     303.420E-06     273.105E-06
             673             162     303.420E-06     273.105E-06
             673             163     299.700E-06     270.715E-06
             672             163     299.700E-06     270.715E-06
             671             164     295.824E-06     268.990E-06
             672             164     295.824E-06     268.990E-06
             670             165     292.043E-06     267.299E-06
             671             165     292.043E-06     267.299E-06
             670             166     288.322E-06     266.467E-06
             669             166     288.322E-06     266.467E-06
             669             167     284.607E-06     265.729E-06
             668             167     284.607E-06     265.729E-06
             668             168     281.552E-06     266.384E-06
             667             168     281.552E-06     266.384E-06
             666             169     277.477E-06     264.685E-06
             667             169     277.477E-06     264.685E-06
             666             170     272.063E-06     269.460E-06
             665             170     272.063E-06     269.460E-06
             664             171     254.270E-06     280.582E-06
             665             171     254.270E-06     280.582E-06
             664             172     257.221E-06     282.216E-06
             647             172     257.221E-06     282.216E-06
            2455             172     257.221E-06     282.216E-06
            2438             172     257.221E-06     282.216E-06
             647             173     277.989E-06     240.657E-06
            2421             173     277.989E-06     240.657E-06
            2438             173     277.989E-06     240.657E-06
             630             173     277.989E-06     240.657E-06
             630             174     271.346E-06     231.790E-06
            2421             174     271.346E-06     231.790E-06
            2404             174     271.346E-06     231.790E-06
             613             174     271.346E-06     231.790E-06
            2387             175     238.542E-06     259.927E-06
            2404             175     238.542E-06     259.927E-06
             613             175     238.542E-06     259.927E-06
             596             175     238.542E-06     259.927E-06
            1960             176     19.3370E-03     19.0553E-03
             681             176     19.3370E-03     19.0553E-03
            1959             176     19.3370E-03     19.0553E-03
             682             176     19.3370E-03     19.0553E-03
             682             177     15.6295E-03     15.3527E-03
             683             177     15.6295E-03     15.3527E-03
            1958             177     15.6295E-03     15.3527E-03
            1959             177     15.6295E-03     15.3527E-03
             684             178     11.2295E-03     10.6862E-03
            1958             178     11.2295E-03     10.6862E-03
            1957             178     11.2295E-03     10.6862E-03
             683             178     11.2295E-03     10.6862E-03
            1957             179     6.03031E-03     6.43989E-03
            1956             179     6.03031E-03     6.43989E-03
             684             179     6.03031E-03     6.43989E-03
             685             179     6.03031E-03     6.43989E-03
             690             180     449.513E-06     468.698E-06
             685             180     449.513E-06     468.698E-06
            2388             180     449.513E-06     468.698E-06
            2371             180     449.513E-06     468.698E-06
            2405             181     308.145E-06     291.728E-06
            2388             181     308.145E-06     291.728E-06
             690             181     308.145E-06     291.728E-06
             695             181     308.145E-06     291.728E-06
             695             182     149.939E-06     172.302E-06
            2405             182     149.939E-06     172.302E-06
             700             182     149.939E-06     172.302E-06
            2422             182     149.939E-06     172.302E-06
             700             183     107.875E-06     151.031E-06
             705             183     107.875E-06     151.031E-06
            2422             183     107.875E-06     151.031E-06
            2439             183     107.875E-06     151.031E-06
             704             184     146.525E-06     197.195E-06
             705             184     146.525E-06     197.195E-06
             703             185     220.822E-06     231.519E-06
             704             185     220.822E-06     231.519E-06
             703             186     367.749E-06     362.725E-06
             702             186     367.749E-06     362.725E-06
             701             187     461.189E-06     453.586E-06
             702             187     461.189E-06     453.586E-06
            1730             188     495.820E-06     484.347E-06
             696             188     495.820E-06     484.347E-06
            1735             188     495.820E-06     484.347E-06
             701             188     495.820E-06     484.347E-06
            1725             189     495.904E-06     490.322E-06
            1730             189     495.904E-06     490.322E-06
             696             189     495.904E-06     490.322E-06
             691             189     495.904E-06     490.322E-06
             686             190     497.757E-06     492.625E-06
            1720             190     497.757E-06     492.625E-06
            1725             190     497.757E-06     492.625E-06
             691             190     497.757E-06     492.625E-06
             686             191     495.975E-06     482.068E-06
            1720             191     495.975E-06     482.068E-06
            1715             191     495.975E-06     482.068E-06
             681             191     495.975E-06     482.068E-06
            1714             192     20.8466E-03     20.5656E-03
             706             192     20.8466E-03     20.5656E-03
             707             192     20.8466E-03     20.5656E-03
            1715             192     20.8466E-03     20.5656E-03
            1714             193     18.4870E-03     18.2223E-03
            1713             193     18.4870E-03     18.2223E-03
             707             193     18.4870E-03     18.2223E-03
             708             193     18.4870E-03     18.2223E-03
            1712             194     15.0340E-03     14.6420E-03
             708             194     15.0340E-03     14.6420E-03
             709             194     15.0340E-03     14.6420E-03
            1713             194     15.0340E-03     14.6420E-03
             710             195     7.98700E-03     8.69152E-03
            1712             195     7.98700E-03     8.69152E-03
             709             195     7.98700E-03     8.69152E-03
            1711             195     7.98700E-03     8.69152E-03
            1133             196     8.27495E-03     12.8828E-03
             710             196     8.27495E-03     12.8828E-03
            1116             196     8.27495E-03     12.8828E-03
             715             196     8.27495E-03     12.8828E-03
            1150             197     12.6231E-03     16.1330E-03
             715             197     12.6231E-03     16.1330E-03
            1133             197     12.6231E-03     16.1330E-03
             720             197     12.6231E-03     16.1330E-03
             725             198     15.2852E-03     16.2156E-03
             720             198     15.2852E-03     16.2156E-03
            1167             198     15.2852E-03     16.2156E-03
            1150             198     15.2852E-03     16.2156E-03
             725             199     22.2798E-03     21.0282E-03
            1167             199     22.2798E-03     21.0282E-03
             730             199     22.2798E-03     21.0282E-03
            1184             199     22.2798E-03     21.0282E-03
            1184             200     30.1589E-03     31.0619E-03
             735             200     30.1589E-03     31.0619E-03
            1201             200     30.1589E-03     31.0619E-03
             730             200     30.1589E-03     31.0619E-03
            1218             201     40.8452E-03     39.8904E-03
             735             201     40.8452E-03     39.8904E-03
            1201             201     40.8452E-03     39.8904E-03
             740             201     40.8452E-03     39.8904E-03
            1235             202     50.2285E-03     51.1142E-03
             745             202     50.2285E-03     51.1142E-03
             740             202     50.2285E-03     51.1142E-03
            1218             202     50.2285E-03     51.1142E-03
            1252             203     45.5511E-03     48.6517E-03
             745             203     45.5511E-03     48.6517E-03
             750             203     45.5511E-03     48.6517E-03
            1235             203     45.5511E-03     48.6517E-03
            1269             204     44.3035E-03     41.7382E-03
             750             204     44.3035E-03     41.7382E-03
             755             204     44.3035E-03     41.7382E-03
            1252             204     44.3035E-03     41.7382E-03
            1286             205     52.3758E-03     52.5411E-03
             760             205     52.3758E-03     52.5411E-03
            1269             205     52.3758E-03     52.5411E-03
             755             205     52.3758E-03     52.5411E-03
            1303             206     62.2599E-03     61.4373E-03
            1286             206     62.2599E-03     61.4373E-03
             760             206     62.2599E-03     61.4373E-03
             765             206     62.2599E-03     61.4373E-03
            1320             207     70.0422E-03     72.5405E-03
            1303             207     70.0422E-03     72.5405E-03
             765             207     70.0422E-03     72.5405E-03
             770             207     70.0422E-03     72.5405E-03
             770             208     82.3226E-03     81.0589E-03
             775             208     82.3226E-03     81.0589E-03
            1337             208     82.3226E-03     81.0589E-03
            1320             208     82.3226E-03     81.0589E-03
             775             209     92.2056E-03     92.5937E-03
            1354             209     92.2056E-03     92.5937E-03
             780             209     92.2056E-03     92.5937E-03
            1337             209     92.2056E-03     92.5937E-03
            1354             210     84.7414E-03     90.0160E-03
             780             210     84.7414E-03     90.0160E-03
            1371             210     84.7414E-03     90.0160E-03
             785             210     84.7414E-03     90.0160E-03
            1388             211     83.7180E-03     81.3469E-03
            1371             211     83.7180E-03     81.3469E-03
             785             211     83.7180E-03     81.3469E-03
             790             211     83.7180E-03     81.3469E-03
            1405             212     94.1477E-03     92.0319E-03
             790             212     94.1477E-03     92.0319E-03
            1388             212     94.1477E-03     92.0319E-03
             795             212     94.1477E-03     92.0319E-03
             800             213     101.304E-03     105.509E-03
            1405             213     101.304E-03     105.509E-03
            1422             213     101.304E-03     105.509E-03
             795             213     101.304E-03     105.509E-03
            1422             214     115.723E-03     113.491E-03
            1439             214     115.723E-03     113.491E-03
             805             214     115.723E-03     113.491E-03
             800             214     115.723E-03     113.491E-03
             805             215     126.094E-03     126.242E-03
             810             215     126.094E-03     126.242E-03
            1439             215     126.094E-03     126.242E-03
            1456             215     126.094E-03     126.242E-03
             810             216     118.324E-03     125.719E-03
             815             216     118.324E-03     125.719E-03
            1456             216     118.324E-03     125.719E-03
            1473             216     118.324E-03     125.719E-03
            1490             217     119.842E-03     115.598E-03
             815             217     119.842E-03     115.598E-03
            1473             217     119.842E-03     115.598E-03
             820             217     119.842E-03     115.598E-03
             820             218     128.091E-03     128.096E-03
            1490             218     128.091E-03     128.096E-03
            1507             218     128.091E-03     128.096E-03
             825             218     128.091E-03     128.096E-03
            1524             219     137.670E-03     137.982E-03
            1507             219     137.670E-03     137.982E-03
             825             219     137.670E-03     137.982E-03
             830             219     137.670E-03     137.982E-03
            1524             220     146.075E-03     149.890E-03
             830             220     146.075E-03     149.890E-03
            1541             220     146.075E-03     149.890E-03
             835             220     146.075E-03     149.890E-03
            1541             221     160.432E-03     158.827E-03
            1558             221     160.432E-03     158.827E-03
             840             221     160.432E-03     158.827E-03
             835             221     160.432E-03     158.827E-03
             840             222     171.843E-03     170.897E-03
             845             222     171.843E-03     170.897E-03
            1558             222     171.843E-03     170.897E-03
            1575             222     171.843E-03     170.897E-03
             845             223     160.716E-03     170.656E-03
            1592             223     160.716E-03     170.656E-03
             850             223     160.716E-03     170.656E-03
            1575             223     160.716E-03     170.656E-03
            1592             224     161.943E-03     158.623E-03
            1609             224     161.943E-03     158.623E-03
             850             224     161.943E-03     158.623E-03
             855             224     161.943E-03     158.623E-03
            1626             225     173.164E-03     169.536E-03
            1609             225     173.164E-03     169.536E-03
             860             225     173.164E-03     169.536E-03
             855             225     173.164E-03     169.536E-03
             865             226     178.257E-03     185.815E-03
            1643             226     178.257E-03     185.815E-03
             860             226     178.257E-03     185.815E-03
            1626             226     178.257E-03     185.815E-03
             865             227     196.143E-03     192.370E-03
            1660             227     196.143E-03     192.370E-03
            1643             227     196.143E-03     192.370E-03
             870             227     196.143E-03     192.370E-03
            1677             228     207.164E-03     206.482E-03
            1660             228     207.164E-03     206.482E-03
             875             228     207.164E-03     206.482E-03
             870             228     207.164E-03     206.482E-03
            1694             229     195.959E-03     207.442E-03
            1677             229     195.959E-03     207.442E-03
             875             229     195.959E-03     207.442E-03
             880             229     195.959E-03     207.442E-03
             880             230     180.261E-03     196.402E-03
            2799             230     180.261E-03     196.402E-03
             879             230     180.261E-03     196.402E-03
            2800             230     180.261E-03     196.402E-03
             879             231     154.877E-03     166.274E-03
            2798             231     154.877E-03     166.274E-03
            2799             231     154.877E-03     166.274E-03
             878             231     154.877E-03     166.274E-03
             878             232     110.009E-03     112.452E-03
            2798             232     110.009E-03     112.452E-03
             877             232     110.009E-03     112.452E-03
            2797             232     110.009E-03     112.452E-03
            2796             233     54.8972E-03     52.7320E-03
            2797             233     54.8972E-03     52.7320E-03
             876             233     54.8972E-03     52.7320E-03
             877             233     54.8972E-03     52.7320E-03
             876             234     49.6020E-03     49.5937E-03
            2125             234     49.6020E-03     49.5937E-03
             871             234     49.6020E-03     49.5937E-03
            2130             234     49.6020E-03     49.5937E-03
             866             235     58.5431E-03     56.7668E-03
            2125             235     58.5431E-03     56.7668E-03
            2120             235     58.5431E-03     56.7668E-03
             871             235     58.5431E-03     56.7668E-03
            2115             236     59.1017E-03     60.9315E-03
             861             236     59.1017E-03     60.9315E-03
             866             236     59.1017E-03     60.9315E-03
            2120             236     59.1017E-03     60.9315E-03
             856             237     58.0413E-03     60.2628E-03
            2110             237     58.0413E-03     60.2628E-03
             861             237     58.0413E-03     60.2628E-03
            2115             237     58.0413E-03     60.2628E-03
             856             238     59.6294E-03     56.3699E-03
             851             238     59.6294E-03     56.3699E-03
            2110             238     59.6294E-03     56.3699E-03
            2105             238     59.6294E-03     56.3699E-03
            2105             239     57.3648E-03     56.5378E-03
            2100             239     57.3648E-03     56.5378E-03
             846             239     57.3648E-03     56.5378E-03
             851             239     57.3648E-03     56.5378E-03
            2100             240     53.7672E-03     54.6619E-03
            2095             240     53.7672E-03     54.6619E-03
             846             240     53.7672E-03     54.6619E-03
             841             240     53.7672E-03     54.6619E-03
             836             241     54.8426E-03     53.5227E-03
            2090             241     54.8426E-03     53.5227E-03
             841             241     54.8426E-03     53.5227E-03
            2095             241     54.8426E-03     53.5227E-03
            2090             242     55.1155E-03     57.0834E-03
            2085             242     55.1155E-03     57.0834E-03
             831             242     55.1155E-03     57.0834E-03
             836             242     55.1155E-03     57.0834E-03
             831             243     53.8027E-03     55.9028E-03
            2080             243     53.8027E-03     55.9028E-03
            2085             243     53.8027E-03     55.9028E-03
             826             243     53.8027E-03     55.9028E-03
            2075             244     55.2169E-03     53.6069E-03
            2080             244     55.2169E-03     53.6069E-03
             821             244     55.2169E-03     53.6069E-03
             826             244     55.2169E-03     53.6069E-03
            2075             245     54.1949E-03     51.6202E-03
             821             245     54.1949E-03     51.6202E-03
            2070             245     54.1949E-03     51.6202E-03
             816             245     54.1949E-03     51.6202E-03
             816             246     52.6447E-03     51.4346E-03
             811             246     52.6447E-03     51.4346E-03
            2070             246     52.6447E-03     51.4346E-03
            2065             246     52.6447E-03     51.4346E-03
             811             247     50.1832E-03     50.2667E-03
            2065             247     50.1832E-03     50.2667E-03
             806             247     50.1832E-03     50.2667E-03
            2060             247     50.1832E-03     50.2667E-03
             806             248     50.3181E-03     49.1089E-03
            2055             248     50.3181E-03     49.1089E-03
            2060             248     50.3181E-03     49.1089E-03
             801             248     50.3181E-03     49.1089E-03
            2055             249     50.4045E-03     51.5199E-03
             801             249     50.4045E-03     51.5199E-03
             796             249     50.4045E-03     51.5199E-03
            2050             249     50.4045E-03     51.5199E-03
            2045             250     49.7320E-03     50.5764E-03
            2050             250     49.7320E-03     50.5764E-03
             796             250     49.7320E-03     50.5764E-03
             791             250     49.7320E-03     50.5764E-03
             786             251     50.6229E-03     48.5708E-03
            2040             251     50.6229E-03     48.5708E-03
             791             251     50.6229E-03     48.5708E-03
            2045             251     50.6229E-03     48.5708E-03
            2035             252     49.4233E-03     48.8315E-03
            2040             252     49.4233E-03     48.8315E-03
             781             252     49.4233E-03     48.8315E-03
             786             252     49.4233E-03     48.8315E-03
            2035             253     47.4833E-03     47.4040E-03
             776             253     47.4833E-03     47.4040E-03
             781             253     47.4833E-03     47.4040E-03
            2030             253     47.4833E-03     47.4040E-03
             776             254     47.7170E-03     46.8004E-03
             771             254     47.7170E-03     46.8004E-03
            2025             254     47.7170E-03     46.8004E-03
            2030             254     47.7170E-03     46.8004E-03
             766             255     47.5988E-03     48.6006E-03
            2020             255     47.5988E-03     48.6006E-03
             771             255     47.5988E-03     48.6006E-03
            2025             255     47.5988E-03     48.6006E-03
             766             256     46.7518E-03     47.5644E-03
             761             256     46.7518E-03     47.5644E-03
            2015             256     46.7518E-03     47.5644E-03
            2020             256     46.7518E-03     47.5644E-03
            2010             257     47.4445E-03     46.3506E-03
            2015             257     47.4445E-03     46.3506E-03
             761             257     47.4445E-03     46.3506E-03
             756             257     47.4445E-03     46.3506E-03
            2010             258     47.0386E-03     45.7949E-03
             756             258     47.0386E-03     45.7949E-03
             751             258     47.0386E-03     45.7949E-03
            2005             258     47.0386E-03     45.7949E-03
             751             259     46.4954E-03     45.6677E-03
             746             259     46.4954E-03     45.6677E-03
            2005             259     46.4954E-03     45.6677E-03
            2000             259     46.4954E-03     45.6677E-03
             741             260     45.1425E-03     44.6160E-03
             746             260     45.1425E-03     44.6160E-03
            2000             260     45.1425E-03     44.6160E-03
            1995             260     45.1425E-03     44.6160E-03
             736             261     44.7776E-03     44.0451E-03
            1990             261     44.7776E-03     44.0451E-03
             741             261     44.7776E-03     44.0451E-03
            1995             261     44.7776E-03     44.0451E-03
             731             262     44.8151E-03     44.9664E-03
            1990             262     44.8151E-03     44.9664E-03
            1985             262     44.8151E-03     44.9664E-03
             736             262     44.8151E-03     44.9664E-03
            1985             263     44.3886E-03     44.4317E-03
             726             263     44.3886E-03     44.4317E-03
            1980             263     44.3886E-03     44.4317E-03
             731             263     44.3886E-03     44.4317E-03
            1975             264     44.8510E-03     44.0835E-03
            1980             264     44.8510E-03     44.0835E-03
             721             264     44.8510E-03     44.0835E-03
             726             264     44.8510E-03     44.0835E-03
             721             265     44.4794E-03     43.9345E-03
            1975             265     44.4794E-03     43.9345E-03
             716             265     44.4794E-03     43.9345E-03
            1970             265     44.4794E-03     43.9345E-03
             711             266     42.3282E-03     41.8977E-03
            1965             266     42.3282E-03     41.8977E-03
            1970             266     42.3282E-03     41.8977E-03
             716             266     42.3282E-03     41.8977E-03
            1960             267     41.1210E-03     40.6133E-03
             706             267     41.1210E-03     40.6133E-03
            1965             267     41.1210E-03     40.6133E-03
             711             267     41.1210E-03     40.6133E-03
            1047             318     219.539E-03     211.533E-03
            1736             318     219.539E-03     211.533E-03
            1741             318     219.539E-03     211.533E-03
            1064             318     219.539E-03     211.533E-03
            1746             319     225.787E-03     228.582E-03
            1081             319     225.787E-03     228.582E-03
            1064             319     225.787E-03     228.582E-03
            1741             319     225.787E-03     228.582E-03
            1098             320     239.342E-03     239.473E-03
            1751             320     239.342E-03     239.473E-03
            1081             320     239.342E-03     239.473E-03
            1746             320     239.342E-03     239.473E-03
            1751             321     253.280E-03     250.465E-03
            1756             321     253.280E-03     250.465E-03
            1098             321     253.280E-03     250.465E-03
            1115             321     253.280E-03     250.465E-03
            1861             328     217.699E-03     225.919E-03
            1114             328     217.699E-03     225.919E-03
            1115             328     217.699E-03     225.919E-03
            1862             328     217.699E-03     225.919E-03
            1861             329     198.985E-03     206.192E-03
            1114             329     198.985E-03     206.192E-03
            1113             329     198.985E-03     206.192E-03
            1860             329     198.985E-03     206.192E-03
            1113             330     185.035E-03     193.322E-03
            1860             330     185.035E-03     193.322E-03
            1112             330     185.035E-03     193.322E-03
            1859             330     185.035E-03     193.322E-03
            1111             331     171.417E-03     180.928E-03
            1112             331     171.417E-03     180.928E-03
            1859             331     171.417E-03     180.928E-03
            1858             331     171.417E-03     180.928E-03
            1110             332     158.217E-03     168.604E-03
            1857             332     158.217E-03     168.604E-03
            1858             332     158.217E-03     168.604E-03
            1111             332     158.217E-03     168.604E-03
            1109             333     144.837E-03     156.107E-03
            1857             333     144.837E-03     156.107E-03
            1110             333     144.837E-03     156.107E-03
            1856             333     144.837E-03     156.107E-03
            1856             334     131.438E-03     143.468E-03
            1108             334     131.438E-03     143.468E-03
            1855             334     131.438E-03     143.468E-03
            1109             334     131.438E-03     143.468E-03
            1107             335     117.903E-03     130.709E-03
            1855             335     117.903E-03     130.709E-03
            1854             335     117.903E-03     130.709E-03
            1108             335     117.903E-03     130.709E-03
            1107             336     104.326E-03     117.897E-03
            1854             336     104.326E-03     117.897E-03
            1106             336     104.326E-03     117.897E-03
            1853             336     104.326E-03     117.897E-03
            1853             337     90.6855E-03     105.013E-03
            1852             337     90.6855E-03     105.013E-03
            1105             337     90.6855E-03     105.013E-03
            1106             337     90.6855E-03     105.013E-03
            1105             338     77.0278E-03     92.1265E-03
            1852             338     77.0278E-03     92.1265E-03
            1104             338     77.0278E-03     92.1265E-03
            1851             338     77.0278E-03     92.1265E-03
            1851             339     63.3583E-03     79.2148E-03
            1104             339     63.3583E-03     79.2148E-03
            1850             339     63.3583E-03     79.2148E-03
            1103             339     63.3583E-03     79.2148E-03
            1103             340     49.7883E-03     66.4102E-03
            1849             340     49.7883E-03     66.4102E-03
            1850             340     49.7883E-03     66.4102E-03
            1102             340     49.7883E-03     66.4102E-03
            1849             341     37.0053E-03     54.1455E-03
            1102             341     37.0053E-03     54.1455E-03
            1848             341     37.0053E-03     54.1455E-03
            1101             341     37.0053E-03     54.1455E-03
            1101             342     25.8135E-03     43.8058E-03
            1848             342     25.8135E-03     43.8058E-03
            1100             342     25.8135E-03     43.8058E-03
            1847             342     25.8135E-03     43.8058E-03
            1846             343     23.1272E-03     42.9252E-03
            1847             343     23.1272E-03     42.9252E-03
            1099             343     23.1272E-03     42.9252E-03
            1100             343     23.1272E-03     42.9252E-03
            1099             344     62.6261E-03     69.6752E-03
            1828             344     62.6261E-03     69.6752E-03
            1082             344     62.6261E-03     69.6752E-03
            1845             344     62.6261E-03     69.6752E-03
            1082             345     68.0751E-03     59.0023E-03
            1065             345     68.0751E-03     59.0023E-03
            1811             345     68.0751E-03     59.0023E-03
            1828             345     68.0751E-03     59.0023E-03
            1794             346     77.2902E-03     69.6118E-03
            1048             346     77.2902E-03     69.6118E-03
            1065             346     77.2902E-03     69.6118E-03
            1811             346     77.2902E-03     69.6118E-03
            1048             347     83.7243E-03     95.3903E-03
            1777             347     83.7243E-03     95.3903E-03
            1794             347     83.7243E-03     95.3903E-03
            1031             347     83.7243E-03     95.3903E-03
            1777             348     80.4270E-03     80.9700E-03
            1776             348     80.4270E-03     80.9700E-03
            1710             348     80.4270E-03     80.9700E-03
            1709             348     80.4270E-03     80.9700E-03
            1776             349     89.6983E-03     89.7148E-03
            1709             349     89.6983E-03     89.7148E-03
            1708             349     89.6983E-03     89.7148E-03
            1775             349     89.6983E-03     89.7148E-03
            1775             350     98.2396E-03     97.1814E-03
            1774             350     98.2396E-03     97.1814E-03
            1707             350     98.2396E-03     97.1814E-03
            1708             350     98.2396E-03     97.1814E-03
            1773             351     107.039E-03     105.659E-03
            1706             351     107.039E-03     105.659E-03
            1707             351     107.039E-03     105.659E-03
            1774             351     107.039E-03     105.659E-03
            1773             352     115.422E-03     113.665E-03
            1705             352     115.422E-03     113.665E-03
            1772             352     115.422E-03     113.665E-03
            1706             352     115.422E-03     113.665E-03
            1772             353     123.930E-03     122.008E-03
            1705             353     123.930E-03     122.008E-03
            1771             353     123.930E-03     122.008E-03
            1704             353     123.930E-03     122.008E-03
            1771             354     132.603E-03     130.637E-03
            1703             354     132.603E-03     130.637E-03
            1704             354     132.603E-03     130.637E-03
            1770             354     132.603E-03     130.637E-03
            1770             355     141.454E-03     139.608E-03
            1702             355     141.454E-03     139.608E-03
            1703             355     141.454E-03     139.608E-03
            1769             355     141.454E-03     139.608E-03
            1702             356     150.391E-03     148.758E-03
            1769             356     150.391E-03     148.758E-03
            1701             356     150.391E-03     148.758E-03
            1768             356     150.391E-03     148.758E-03
            1700             357     159.398E-03     158.089E-03
            1767             357     159.398E-03     158.089E-03
            1768             357     159.398E-03     158.089E-03
            1701             357     159.398E-03     158.089E-03
            1767             358     168.233E-03     167.319E-03
            1700             358     168.233E-03     167.319E-03
            1699             358     168.233E-03     167.319E-03
            1766             358     168.233E-03     167.319E-03
            1699             359     176.942E-03     176.344E-03
            1698             359     176.942E-03     176.344E-03
            1766             359     176.942E-03     176.344E-03
            1765             359     176.942E-03     176.344E-03
            1765             360     184.931E-03     184.822E-03
            1698             360     184.931E-03     184.822E-03
            1697             360     184.931E-03     184.822E-03
            1764             360     184.931E-03     184.822E-03
            1764             361     191.840E-03     191.790E-03
            1696             361     191.840E-03     191.790E-03
            1697             361     191.840E-03     191.790E-03
            1763             361     191.840E-03     191.790E-03
            1762             362     196.808E-03     196.604E-03
            1695             362     196.808E-03     196.604E-03
            1696             362     196.808E-03     196.604E-03
            1763             362     196.808E-03     196.604E-03
            1762             363     197.326E-03     199.309E-03
            1761             363     197.326E-03     199.309E-03
            1695             363     197.326E-03     199.309E-03
            1694             363     197.326E-03     199.309E-03
            1735             364     461.189E-06     453.586E-06
            1734             364     461.189E-06     453.586E-06
            1734             365     367.749E-06     362.725E-06
            1733             365     367.749E-06     362.725E-06
            1733             366     220.822E-06     231.519E-06
            1732             366     220.822E-06     231.519E-06
            1731             367     146.525E-06     197.195E-06
            1732             367     146.525E-06     197.195E-06
            2127             368     196.495E-03     213.784E-03
            2126             368     196.495E-03     213.784E-03
            1737             368     196.495E-03     213.784E-03
            1736             368     196.495E-03     213.784E-03
            1737             369     169.414E-03     190.155E-03
            2128             369     169.414E-03     190.155E-03
            1738             369     169.414E-03     190.155E-03
            2127             369     169.414E-03     190.155E-03
            2128             370     127.926E-03     141.944E-03
            2129             370     127.926E-03     141.944E-03
            1738             370     127.926E-03     141.944E-03
            1739             370     127.926E-03     141.944E-03
            2130             371     76.7519E-03     85.4898E-03
            1739             371     76.7519E-03     85.4898E-03
            2129             371     76.7519E-03     85.4898E-03
            1740             371     76.7519E-03     85.4898E-03
            2796             372     36.5834E-03     35.3892E-03
            1740             372     36.5834E-03     35.3892E-03
            2801             372     36.5834E-03     35.3892E-03
            1745             372     36.5834E-03     35.3892E-03
            1745             373     38.0449E-03     41.4832E-03
            2801             373     38.0449E-03     41.4832E-03
            2806             373     38.0449E-03     41.4832E-03
            1750             373     38.0449E-03     41.4832E-03
            2811             374     39.5743E-03     41.7363E-03
            1755             374     39.5743E-03     41.7363E-03
            2806             374     39.5743E-03     41.7363E-03
            1750             374     39.5743E-03     41.7363E-03
            1755             375     39.7517E-03     39.4550E-03
            1760             375     39.7517E-03     39.4550E-03
            2811             375     39.7517E-03     39.4550E-03
            2816             375     39.7517E-03     39.4550E-03
            2255             376     79.4212E-03     81.0388E-03
            2254             376     79.4212E-03     81.0388E-03
            1759             376     79.4212E-03     81.0388E-03
            1760             376     79.4212E-03     81.0388E-03
            2253             377     131.741E-03     141.982E-03
            2254             377     131.741E-03     141.982E-03
            1758             377     131.741E-03     141.982E-03
            1759             377     131.741E-03     141.982E-03
            1758             378     177.807E-03     200.120E-03
            2253             378     177.807E-03     200.120E-03
            2252             378     177.807E-03     200.120E-03
            1757             378     177.807E-03     200.120E-03
            2251             379     216.306E-03     239.959E-03
            1756             379     216.306E-03     239.959E-03
            1757             379     216.306E-03     239.959E-03
            2252             379     216.306E-03     239.959E-03
            1845             380     50.0391E-03     49.2866E-03
            1844             380     50.0391E-03     49.2866E-03
            2726             380     50.0391E-03     49.2866E-03
            2727             380     50.0391E-03     49.2866E-03
            1843             381     57.0494E-03     63.0901E-03
            2726             381     57.0494E-03     63.0901E-03
            1844             381     57.0494E-03     63.0901E-03
            2725             381     57.0494E-03     63.0901E-03
            2725             382     68.1019E-03     75.7485E-03
            1843             382     68.1019E-03     75.7485E-03
            2724             382     68.1019E-03     75.7485E-03
            1842             382     68.1019E-03     75.7485E-03
            2724             383     79.4697E-03     88.5195E-03
            2723             383     79.4697E-03     88.5195E-03
            1841             383     79.4697E-03     88.5195E-03
            1842             383     79.4697E-03     88.5195E-03
            2723             384     90.3159E-03     100.034E-03
            1841             384     90.3159E-03     100.034E-03
            1840             384     90.3159E-03     100.034E-03
            2722             384     90.3159E-03     100.034E-03
            2722             385     101.631E-03     111.593E-03
            2721             385     101.631E-03     111.593E-03
            1839             385     101.631E-03     111.593E-03
            1840             385     101.631E-03     111.593E-03
            2720             386     113.352E-03     123.403E-03
            1838             386     113.352E-03     123.403E-03
            1839             386     113.352E-03     123.403E-03
            2721             386     113.352E-03     123.403E-03
            1838             387     125.514E-03     135.466E-03
            2720             387     125.514E-03     135.466E-03
            1837             387     125.514E-03     135.466E-03
            2719             387     125.514E-03     135.466E-03
            2718             388     138.107E-03     147.823E-03
            2719             388     138.107E-03     147.823E-03
            1836             388     138.107E-03     147.823E-03
            1837             388     138.107E-03     147.823E-03
            2717             389     151.050E-03     160.404E-03
            1836             389     151.050E-03     160.404E-03
            1835             389     151.050E-03     160.404E-03
            2718             389     151.050E-03     160.404E-03
            1834             390     164.354E-03     173.255E-03
            1835             390     164.354E-03     173.255E-03
            2716             390     164.354E-03     173.255E-03
            2717             390     164.354E-03     173.255E-03
            2715             391     177.960E-03     186.314E-03
            1834             391     177.960E-03     186.314E-03
            1833             391     177.960E-03     186.314E-03
            2716             391     177.960E-03     186.314E-03
            1833             392     192.023E-03     199.674E-03
            1832             392     192.023E-03     199.674E-03
            2715             392     192.023E-03     199.674E-03
            2714             392     192.023E-03     199.674E-03
            2714             393     206.580E-03     213.425E-03
            2713             393     206.580E-03     213.425E-03
            1831             393     206.580E-03     213.425E-03
            1832             393     206.580E-03     213.425E-03
            1831             394     222.534E-03     228.267E-03
            2712             394     222.534E-03     228.267E-03
            1830             394     222.534E-03     228.267E-03
            2713             394     222.534E-03     228.267E-03
            2711             395     242.176E-03     247.863E-03
            1830             395     242.176E-03     247.863E-03
            1829             395     242.176E-03     247.863E-03
            2712             395     242.176E-03     247.863E-03
            2815             396     292.291E-03     286.850E-03
            2820             396     292.291E-03     286.850E-03
            1812             396     292.291E-03     286.850E-03
            1829             396     292.291E-03     286.850E-03
            2815             397     265.902E-03     266.357E-03
            1812             397     265.902E-03     266.357E-03
            1795             397     265.902E-03     266.357E-03
            2810             397     265.902E-03     266.357E-03
            2805             398     238.450E-03     243.535E-03
            1778             398     238.450E-03     243.535E-03
            2810             398     238.450E-03     243.535E-03
            1795             398     238.450E-03     243.535E-03
            2805             399     217.021E-03     215.621E-03
            1778             399     217.021E-03     215.621E-03
            2800             399     217.021E-03     215.621E-03
            1761             399     217.021E-03     215.621E-03
            1862             400     223.975E-03     241.945E-03
            1879             400     223.975E-03     241.945E-03
            2251             400     223.975E-03     241.945E-03
            2256             400     223.975E-03     241.945E-03
            1896             401     227.281E-03     230.876E-03
            1879             401     227.281E-03     230.876E-03
            2261             401     227.281E-03     230.876E-03
            2256             401     227.281E-03     230.876E-03
            2261             402     198.899E-03     190.747E-03
            2266             402     198.899E-03     190.747E-03
            1896             402     198.899E-03     190.747E-03
            1913             402     198.899E-03     190.747E-03
            1930             403     158.653E-03     158.404E-03
            2266             403     158.653E-03     158.404E-03
            2271             403     158.653E-03     158.404E-03
            1913             403     158.653E-03     158.404E-03
            3071             404     146.738E-03     153.057E-03
            1929             404     146.738E-03     153.057E-03
            3072             404     146.738E-03     153.057E-03
            1930             404     146.738E-03     153.057E-03
            3070             405     143.258E-03     149.668E-03
            1928             405     143.258E-03     149.668E-03
            1929             405     143.258E-03     149.668E-03
            3071             405     143.258E-03     149.668E-03
            1928             406     138.068E-03     144.498E-03
            1927             406     138.068E-03     144.498E-03
            3069             406     138.068E-03     144.498E-03
            3070             406     138.068E-03     144.498E-03
            1926             407     129.240E-03     135.729E-03
            3069             407     129.240E-03     135.729E-03
            1927             407     129.240E-03     135.729E-03
            3068             407     129.240E-03     135.729E-03
            1926             408     120.269E-03     126.739E-03
            3067             408     120.269E-03     126.739E-03
            3068             408     120.269E-03     126.739E-03
            1925             408     120.269E-03     126.739E-03
            1925             409     111.203E-03     117.780E-03
            3067             409     111.203E-03     117.780E-03
            3066             409     111.203E-03     117.780E-03
            1924             409     111.203E-03     117.780E-03
            1923             410     102.113E-03     108.545E-03
            3066             410     102.113E-03     108.545E-03
            3065             410     102.113E-03     108.545E-03
            1924             410     102.113E-03     108.545E-03
            1922             411     92.9589E-03     99.4575E-03
            3064             411     92.9589E-03     99.4575E-03
            1923             411     92.9589E-03     99.4575E-03
            3065             411     92.9589E-03     99.4575E-03
            1922             412     83.8408E-03     90.2480E-03
            1921             412     83.8408E-03     90.2480E-03
            3064             412     83.8408E-03     90.2480E-03
            3063             412     83.8408E-03     90.2480E-03
            3062             413     74.7381E-03     81.1625E-03
            1920             413     74.7381E-03     81.1625E-03
            3063             413     74.7381E-03     81.1625E-03
            1921             413     74.7381E-03     81.1625E-03
            1919             414     65.7367E-03     72.0967E-03
            1920             414     65.7367E-03     72.0967E-03
            3061             414     65.7367E-03     72.0967E-03
            3062             414     65.7367E-03     72.0967E-03
            3060             415     56.8722E-03     63.2263E-03
            1919             415     56.8722E-03     63.2263E-03
            3061             415     56.8722E-03     63.2263E-03
            1918             415     56.8722E-03     63.2263E-03
            1917             416     48.2359E-03     54.5481E-03
            1918             416     48.2359E-03     54.5481E-03
            3059             416     48.2359E-03     54.5481E-03
            3060             416     48.2359E-03     54.5481E-03
            3059             417     40.2096E-03     46.3911E-03
            1916             417     40.2096E-03     46.3911E-03
            3058             417     40.2096E-03     46.3911E-03
            1917             417     40.2096E-03     46.3911E-03
            1916             418     32.6828E-03     38.8589E-03
            3057             418     32.6828E-03     38.8589E-03
            1915             418     32.6828E-03     38.8589E-03
            3058             418     32.6828E-03     38.8589E-03
            1914             419     27.1190E-03     34.1877E-03
            3056             419     27.1190E-03     34.1877E-03
            1915             419     27.1190E-03     34.1877E-03
            3057             419     27.1190E-03     34.1877E-03
            2778             420     34.1127E-03     36.8642E-03
            2795             420     34.1127E-03     36.8642E-03
            1914             420     34.1127E-03     36.8642E-03
            1897             420     34.1127E-03     36.8642E-03
            1880             421     31.3478E-03     28.2654E-03
            2778             421     31.3478E-03     28.2654E-03
            1897             421     31.3478E-03     28.2654E-03
            2761             421     31.3478E-03     28.2654E-03
            1880             422     24.9344E-03     24.4556E-03
            2744             422     24.9344E-03     24.4556E-03
            2761             422     24.9344E-03     24.4556E-03
            1863             422     24.9344E-03     24.4556E-03
            1846             423     16.7712E-03     19.7548E-03
            2744             423     16.7712E-03     19.7548E-03
            1863             423     16.7712E-03     19.7548E-03
            2727             423     16.7712E-03     19.7548E-03
            2817             424     93.7077E-03     105.443E-03
            1931             424     93.7077E-03     105.443E-03
            1932             424     93.7077E-03     105.443E-03
            2816             424     93.7077E-03     105.443E-03
            1932             425     146.376E-03     166.897E-03
            2817             425     146.376E-03     166.897E-03
            1933             425     146.376E-03     166.897E-03
            2818             425     146.376E-03     166.897E-03
            2819             426     196.580E-03     224.880E-03
            1933             426     196.580E-03     224.880E-03
            2818             426     196.580E-03     224.880E-03
            1934             426     196.580E-03     224.880E-03
            2819             427     243.089E-03     265.255E-03
            2820             427     243.089E-03     265.255E-03
            1935             427     243.089E-03     265.255E-03
            1934             427     243.089E-03     265.255E-03
            2711             428     233.952E-03     251.749E-03
            2728             428     233.952E-03     251.749E-03
            1935             428     233.952E-03     251.749E-03
            1940             428     233.952E-03     251.749E-03
            1945             429     237.812E-03     240.737E-03
            1940             429     237.812E-03     240.737E-03
            2745             429     237.812E-03     240.737E-03
            2728             429     237.812E-03     240.737E-03
            2762             430     206.733E-03     198.517E-03
            1945             430     206.733E-03     198.517E-03
            1950             430     206.733E-03     198.517E-03
            2745             430     206.733E-03     198.517E-03
            1955             431     163.240E-03     163.714E-03
            2779             431     163.240E-03     163.714E-03
            1950             431     163.240E-03     163.714E-03
            2762             431     163.240E-03     163.714E-03
            1955             432     149.064E-03     159.809E-03
            1954             432     149.064E-03     159.809E-03
            2279             432     149.064E-03     159.809E-03
            2280             432     149.064E-03     159.809E-03
            1953             433     139.585E-03     150.681E-03
            2279             433     139.585E-03     150.681E-03
            1954             433     139.585E-03     150.681E-03
            2278             433     139.585E-03     150.681E-03
            2278             434     128.971E-03     135.073E-03
            2277             434     128.971E-03     135.073E-03
            1953             434     128.971E-03     135.073E-03
            1952             434     128.971E-03     135.073E-03
            1951             435     122.185E-03     123.519E-03
            2277             435     122.185E-03     123.519E-03
            1952             435     122.185E-03     123.519E-03
            2276             435     122.185E-03     123.519E-03
            1951             436     126.005E-03     128.456E-03
            1946             436     126.005E-03     128.456E-03
            2275             436     126.005E-03     128.456E-03
            2270             436     126.005E-03     128.456E-03
            2265             437     128.764E-03     127.976E-03
            1941             437     128.764E-03     127.976E-03
            1946             437     128.764E-03     127.976E-03
            2270             437     128.764E-03     127.976E-03
            1941             438     128.716E-03     124.347E-03
            1936             438     128.716E-03     124.347E-03
            2260             438     128.716E-03     124.347E-03
            2265             438     128.716E-03     124.347E-03
            1931             439     104.609E-03     103.073E-03
            2255             439     104.609E-03     103.073E-03
            1936             439     104.609E-03     103.073E-03
            2260             439     104.609E-03     103.073E-03
            2275             448     122.503E-03     123.342E-03
            2274             448     122.503E-03     123.342E-03
            2840             448     122.503E-03     123.342E-03
            2839             448     122.503E-03     123.342E-03
            2838             449     128.635E-03     134.023E-03
            2839             449     128.635E-03     134.023E-03
            2273             449     128.635E-03     134.023E-03
            2274             449     128.635E-03     134.023E-03
            2837             450     138.248E-03     148.409E-03
            2838             450     138.248E-03     148.409E-03
            2272             450     138.248E-03     148.409E-03
            2273             450     138.248E-03     148.409E-03
            2271             451     145.716E-03     155.505E-03
            2272             451     145.716E-03     155.505E-03
            2836             451     145.716E-03     155.505E-03
            2837             451     145.716E-03     155.505E-03
            2456             452     143.551E-03     145.789E-03
            2280             452     143.551E-03     145.789E-03
            2285             452     143.551E-03     145.789E-03
            2473             452     143.551E-03     145.789E-03
            2473             453     143.499E-03     147.430E-03
            2490             453     143.499E-03     147.430E-03
            2290             453     143.499E-03     147.430E-03
            2285             453     143.499E-03     147.430E-03
            2290             454     154.000E-03     156.058E-03
            2295             454     154.000E-03     156.058E-03
            2507             454     154.000E-03     156.058E-03
            2490             454     154.000E-03     156.058E-03
            2295             455     125.597E-03     122.431E-03
            2300             455     125.597E-03     122.431E-03
            2507             455     125.597E-03     122.431E-03
            2524             455     125.597E-03     122.431E-03
            2300             456     92.0516E-03     97.1553E-03
            2524             456     92.0516E-03     97.1553E-03
            2541             456     92.0516E-03     97.1553E-03
            2305             456     92.0516E-03     97.1553E-03
            2310             457     69.6574E-03     65.8469E-03
            2541             457     69.6574E-03     65.8469E-03
            2558             457     69.6574E-03     65.8469E-03
            2305             457     69.6574E-03     65.8469E-03
            2558             458     40.0046E-03     41.3719E-03
            2575             458     40.0046E-03     41.3719E-03
            2315             458     40.0046E-03     41.3719E-03
            2310             458     40.0046E-03     41.3719E-03
            2320             459     24.5302E-03     31.9737E-03
            2575             459     24.5302E-03     31.9737E-03
            2592             459     24.5302E-03     31.9737E-03
            2315             459     24.5302E-03     31.9737E-03
            2609             460     19.6491E-03     24.7516E-03
            2320             460     19.6491E-03     24.7516E-03
            2325             460     19.6491E-03     24.7516E-03
            2592             460     19.6491E-03     24.7516E-03
            2325             461     15.2958E-03     15.5105E-03
            2324             461     15.2958E-03     15.5105E-03
            3230             461     15.2958E-03     15.5105E-03
            3229             461     15.2958E-03     15.5105E-03
            2324             462     23.8201E-03     24.0142E-03
            3229             462     23.8201E-03     24.0142E-03
            2323             462     23.8201E-03     24.0142E-03
            3228             462     23.8201E-03     24.0142E-03
            2323             463     31.0231E-03     31.1767E-03
            3228             463     31.0231E-03     31.1767E-03
            3227             463     31.0231E-03     31.1767E-03
            2322             463     31.0231E-03     31.1767E-03
            3226             464     35.9987E-03     36.1314E-03
            3227             464     35.9987E-03     36.1314E-03
            2321             464     35.9987E-03     36.1314E-03
            2322             464     35.9987E-03     36.1314E-03
            2885             465     101.191E-03     100.399E-03
            2316             465     101.191E-03     100.399E-03
            2321             465     101.191E-03     100.399E-03
            2880             465     101.191E-03     100.399E-03
            2880             466     127.118E-03     125.047E-03
            2875             466     127.118E-03     125.047E-03
            2316             466     127.118E-03     125.047E-03
            2311             466     127.118E-03     125.047E-03
            2306             467     127.523E-03     126.086E-03
            2875             467     127.523E-03     126.086E-03
            2870             467     127.523E-03     126.086E-03
            2311             467     127.523E-03     126.086E-03
            2865             468     127.520E-03     125.775E-03
            2870             468     127.520E-03     125.775E-03
            2306             468     127.520E-03     125.775E-03
            2301             468     127.520E-03     125.775E-03
            2860             469     126.688E-03     127.061E-03
            2301             469     126.688E-03     127.061E-03
            2296             469     126.688E-03     127.061E-03
            2865             469     126.688E-03     127.061E-03
            2855             470     127.907E-03     129.079E-03
            2296             470     127.907E-03     129.079E-03
            2860             470     127.907E-03     129.079E-03
            2291             470     127.907E-03     129.079E-03
            2291             471     128.162E-03     125.989E-03
            2850             471     128.162E-03     125.989E-03
            2286             471     128.162E-03     125.989E-03
            2855             471     128.162E-03     125.989E-03
            2845             472     130.586E-03     128.235E-03
            2286             472     130.586E-03     128.235E-03
            2850             472     130.586E-03     128.235E-03
            2281             472     130.586E-03     128.235E-03
            2276             473     122.987E-03     121.532E-03
            2845             473     122.987E-03     121.532E-03
            2281             473     122.987E-03     121.532E-03
            2840             473     122.987E-03     121.532E-03
            3089             476     137.789E-03     140.053E-03
            3072             476     137.789E-03     140.053E-03
            2841             476     137.789E-03     140.053E-03
            2836             476     137.789E-03     140.053E-03
            2841             477     138.132E-03     142.293E-03
            2846             477     138.132E-03     142.293E-03
            3089             477     138.132E-03     142.293E-03
            3106             477     138.132E-03     142.293E-03
            3123             478     149.458E-03     152.072E-03
            2851             478     149.458E-03     152.072E-03
            3106             478     149.458E-03     152.072E-03
            2846             478     149.458E-03     152.072E-03
            3123             479     123.147E-03     119.824E-03
            2851             479     123.147E-03     119.824E-03
            3140             479     123.147E-03     119.824E-03
            2856             479     123.147E-03     119.824E-03
            3157             480     91.3609E-03     96.2981E-03
            3140             480     91.3609E-03     96.2981E-03
            2861             480     91.3609E-03     96.2981E-03
            2856             480     91.3609E-03     96.2981E-03
            3174             481     70.8168E-03     66.7139E-03
            2861             481     70.8168E-03     66.7139E-03
            2866             481     70.8168E-03     66.7139E-03
            3157             481     70.8168E-03     66.7139E-03
            2871             482     46.3854E-03     45.2492E-03
            3174             482     46.3854E-03     45.2492E-03
            2866             482     46.3854E-03     45.2492E-03
            3191             482     46.3854E-03     45.2492E-03
            3208             483     35.3884E-03     40.1267E-03
            3191             483     35.3884E-03     40.1267E-03
            2871             483     35.3884E-03     40.1267E-03
            2876             483     35.3884E-03     40.1267E-03
            2881             484     28.3859E-03     32.7231E-03
            3225             484     28.3859E-03     32.7231E-03
            3208             484     28.3859E-03     32.7231E-03
            2876             484     28.3859E-03     32.7231E-03
            2455             496     254.270E-06     280.582E-06
            2454             496     254.270E-06     280.582E-06
            2453             497     272.063E-06     269.460E-06
            2454             497     272.063E-06     269.460E-06
            2452             498     277.477E-06     264.685E-06
            2453             498     277.477E-06     264.685E-06
            2451             499     281.552E-06     266.384E-06
            2452             499     281.552E-06     266.384E-06
            2451             500     284.607E-06     265.729E-06
            2450             500     284.607E-06     265.729E-06
            2449             501     288.322E-06     266.467E-06
            2450             501     288.322E-06     266.467E-06
            2448             502     292.043E-06     267.299E-06
            2449             502     292.043E-06     267.299E-06
            2447             503     295.824E-06     268.990E-06
            2448             503     295.824E-06     268.990E-06
            2447             504     299.700E-06     270.715E-06
            2446             504     299.700E-06     270.715E-06
            2446             505     303.420E-06     273.105E-06
            2445             505     303.420E-06     273.105E-06
            2445             506     306.663E-06     274.779E-06
            2444             506     306.663E-06     274.779E-06
            2443             507     308.380E-06     275.257E-06
            2444             507     308.380E-06     275.257E-06
            2443             508     306.112E-06     272.076E-06
            2442             508     306.112E-06     272.076E-06
            2441             509     285.280E-06     250.969E-06
            2442             509     285.280E-06     250.969E-06
            2441             510     247.745E-06     208.532E-06
            2440             510     247.745E-06     208.532E-06
            2440             511     151.565E-06     166.166E-06
            2439             511     151.565E-06     166.166E-06
            2779             512     152.067E-03     158.128E-03
            2457             512     152.067E-03     158.128E-03
            2456             512     152.067E-03     158.128E-03
            2780             512     152.067E-03     158.128E-03
            2458             513     148.988E-03     155.178E-03
            2457             513     148.988E-03     155.178E-03
            2780             513     148.988E-03     155.178E-03
            2781             513     148.988E-03     155.178E-03
            2781             514     143.069E-03     149.319E-03
            2458             514     143.069E-03     149.319E-03
            2459             514     143.069E-03     149.319E-03
            2782             514     143.069E-03     149.319E-03
            2782             515     133.468E-03     139.743E-03
            2783             515     133.468E-03     139.743E-03
            2460             515     133.468E-03     139.743E-03
            2459             515     133.468E-03     139.743E-03
            2784             516     123.498E-03     129.762E-03
            2783             516     123.498E-03     129.762E-03
            2460             516     123.498E-03     129.762E-03
            2461             516     123.498E-03     129.762E-03
            2461             517     113.482E-03     119.834E-03
            2785             517     113.482E-03     119.834E-03
            2784             517     113.482E-03     119.834E-03
            2462             517     113.482E-03     119.834E-03
            2786             518     103.452E-03     109.631E-03
            2463             518     103.452E-03     109.631E-03
            2785             518     103.452E-03     109.631E-03
            2462             518     103.452E-03     109.631E-03
            2463             519     93.4561E-03     99.6564E-03
            2464             519     93.4561E-03     99.6564E-03
            2786             519     93.4561E-03     99.6564E-03
            2787             519     93.4561E-03     99.6564E-03
            2464             520     83.6130E-03     89.6573E-03
            2465             520     83.6130E-03     89.6573E-03
            2788             520     83.6130E-03     89.6573E-03
            2787             520     83.6130E-03     89.6573E-03
            2465             521     73.9815E-03     79.9425E-03
            2789             521     73.9815E-03     79.9425E-03
            2788             521     73.9815E-03     79.9425E-03
            2466             521     73.9815E-03     79.9425E-03
            2790             522     64.7437E-03     70.4744E-03
            2789             522     64.7437E-03     70.4744E-03
            2466             522     64.7437E-03     70.4744E-03
            2467             522     64.7437E-03     70.4744E-03
            2468             523     56.0600E-03     61.4897E-03
            2791             523     56.0600E-03     61.4897E-03
            2790             523     56.0600E-03     61.4897E-03
            2467             523     56.0600E-03     61.4897E-03
            2792             524     48.3270E-03     53.2330E-03
            2468             524     48.3270E-03     53.2330E-03
            2791             524     48.3270E-03     53.2330E-03
            2469             524     48.3270E-03     53.2330E-03
            2793             525     41.9111E-03     45.7411E-03
            2470             525     41.9111E-03     45.7411E-03
            2469             525     41.9111E-03     45.7411E-03
            2792             525     41.9111E-03     45.7411E-03
            2794             526     37.6513E-03     40.2512E-03
            2471             526     37.6513E-03     40.2512E-03
            2470             526     37.6513E-03     40.2512E-03
            2793             526     37.6513E-03     40.2512E-03
            2472             527     34.5764E-03     36.6378E-03
            2471             527     34.5764E-03     36.6378E-03
            2795             527     34.5764E-03     36.6378E-03
            2794             527     34.5764E-03     36.6378E-03
            2472             528     26.0072E-03     26.9044E-03
            2489             528     26.0072E-03     26.9044E-03
            3073             528     26.0072E-03     26.9044E-03
            3056             528     26.0072E-03     26.9044E-03
            3073             529     24.1619E-03     25.1642E-03
            2489             529     24.1619E-03     25.1642E-03
            3090             529     24.1619E-03     25.1642E-03
            2506             529     24.1619E-03     25.1642E-03
            2523             530     22.7154E-03     24.8741E-03
            2506             530     22.7154E-03     24.8741E-03
            3090             530     22.7154E-03     24.8741E-03
            3107             530     22.7154E-03     24.8741E-03
            2540             531     26.7952E-03     23.6145E-03
            3124             531     26.7952E-03     23.6145E-03
            3107             531     26.7952E-03     23.6145E-03
            2523             531     26.7952E-03     23.6145E-03
            2540             532     28.8113E-03     25.5585E-03
            3124             532     28.8113E-03     25.5585E-03
            3141             532     28.8113E-03     25.5585E-03
            2557             532     28.8113E-03     25.5585E-03
            3141             533     31.1471E-03     27.5471E-03
            2557             533     31.1471E-03     27.5471E-03
            2574             533     31.1471E-03     27.5471E-03
            3158             533     31.1471E-03     27.5471E-03
            2591             534     33.7509E-03     31.5323E-03
            3175             534     33.7509E-03     31.5323E-03
            3158             534     33.7509E-03     31.5323E-03
            2574             534     33.7509E-03     31.5323E-03
            3192             535     33.1386E-03     37.8214E-03
            3175             535     33.1386E-03     37.8214E-03
            2591             535     33.1386E-03     37.8214E-03
            2608             535     33.1386E-03     37.8214E-03
            3192             536     18.2505E-03     22.0463E-03
            2625             536     18.2505E-03     22.0463E-03
            3209             536     18.2505E-03     22.0463E-03
            2608             536     18.2505E-03     22.0463E-03
            2987             537     1.05598E-03     946.255E-06
            2625             537     1.05598E-03     946.255E-06
            2624             537     1.05598E-03     946.255E-06
            2986             537     1.05598E-03     946.255E-06
            2624             538     1.10371E-03     1.01395E-03
            2623             538     1.10371E-03     1.01395E-03
            2985             538     1.10371E-03     1.01395E-03
            2986             538     1.10371E-03     1.01395E-03
            2622             539     1.20798E-03     1.14635E-03
            2623             539     1.20798E-03     1.14635E-03
            2984             539     1.20798E-03     1.14635E-03
            2985             539     1.20798E-03     1.14635E-03
            2984             540     1.35848E-03     1.32484E-03
            2621             540     1.35848E-03     1.32484E-03
            2983             540     1.35848E-03     1.32484E-03
            2622             540     1.35848E-03     1.32484E-03
            2982             541     1.54082E-03     1.52900E-03
            2621             541     1.54082E-03     1.52900E-03
            2620             541     1.54082E-03     1.52900E-03
            2983             541     1.54082E-03     1.52900E-03
            2619             542     1.74539E-03     1.75036E-03
            2981             542     1.74539E-03     1.75036E-03
            2620             542     1.74539E-03     1.75036E-03
            2982             542     1.74539E-03     1.75036E-03
            2618             543     1.96460E-03     1.98262E-03
            2980             543     1.96460E-03     1.98262E-03
            2981             543     1.96460E-03     1.98262E-03
            2619             543     1.96460E-03     1.98262E-03
            2617             544     2.19404E-03     2.22233E-03
            2618             544     2.19404E-03     2.22233E-03
            2979             544     2.19404E-03     2.22233E-03
            2980             544     2.19404E-03     2.22233E-03
            2617             545     2.43085E-03     2.46724E-03
            2616             545     2.43085E-03     2.46724E-03
            2979             545     2.43085E-03     2.46724E-03
            2978             545     2.43085E-03     2.46724E-03
            2616             546     2.67305E-03     2.71588E-03
            2977             546     2.67305E-03     2.71588E-03
            2978             546     2.67305E-03     2.71588E-03
            2615             546     2.67305E-03     2.71588E-03
            2615             547     2.91922E-03     2.96722E-03
            2977             547     2.91922E-03     2.96722E-03
            2614             547     2.91922E-03     2.96722E-03
            2976             547     2.91922E-03     2.96722E-03
            2613             548     3.16809E-03     3.22025E-03
            2976             548     3.16809E-03     3.22025E-03
            2614             548     3.16809E-03     3.22025E-03
            2975             548     3.16809E-03     3.22025E-03
            2974             549     3.41828E-03     3.47425E-03
            2975             549     3.41828E-03     3.47425E-03
            2612             549     3.41828E-03     3.47425E-03
            2613             549     3.41828E-03     3.47425E-03
            2612             550     3.66885E-03     3.72868E-03
            2611             550     3.66885E-03     3.72868E-03
            2974             550     3.66885E-03     3.72868E-03
            2973             550     3.66885E-03     3.72868E-03
            2972             551     3.92735E-03     3.99160E-03
            2610             551     3.92735E-03     3.99160E-03
            2611             551     3.92735E-03     3.99160E-03
            2973             551     3.92735E-03     3.99160E-03
            2610             552     4.22836E-03     4.30486E-03
            2971             552     4.22836E-03     4.30486E-03
            2972             552     4.22836E-03     4.30486E-03
            2609             552     4.22836E-03     4.30486E-03
            2626             553     3.97811E-03     4.13430E-03
            2627             553     3.97811E-03     4.13430E-03
            3209             553     3.97811E-03     4.13430E-03
            3210             553     3.97811E-03     4.13430E-03
            2628             554     4.01279E-03     4.16499E-03
            2627             554     4.01279E-03     4.16499E-03
            3211             554     4.01279E-03     4.16499E-03
            3210             554     4.01279E-03     4.16499E-03
            2628             555     4.05558E-03     4.20984E-03
            3211             555     4.05558E-03     4.20984E-03
            2629             555     4.05558E-03     4.20984E-03
            3212             555     4.05558E-03     4.20984E-03
            2629             556     4.11053E-03     4.26999E-03
            2630             556     4.11053E-03     4.26999E-03
            3213             556     4.11053E-03     4.26999E-03
            3212             556     4.11053E-03     4.26999E-03
            2630             557     4.17722E-03     4.34044E-03
            3213             557     4.17722E-03     4.34044E-03
            2631             557     4.17722E-03     4.34044E-03
            3214             557     4.17722E-03     4.34044E-03
            3214             558     4.25625E-03     4.42234E-03
            2632             558     4.25625E-03     4.42234E-03
            2631             558     4.25625E-03     4.42234E-03
            3215             558     4.25625E-03     4.42234E-03
            3216             559     4.34648E-03     4.51477E-03
            3215             559     4.34648E-03     4.51477E-03
            2633             559     4.34648E-03     4.51477E-03
            2632             559     4.34648E-03     4.51477E-03
            2633             560     4.44737E-03     4.61727E-03
            3216             560     4.44737E-03     4.61727E-03
            3217             560     4.44737E-03     4.61727E-03
            2634             560     4.44737E-03     4.61727E-03
            3218             561     4.55829E-03     4.72917E-03
            2635             561     4.55829E-03     4.72917E-03
            2634             561     4.55829E-03     4.72917E-03
            3217             561     4.55829E-03     4.72917E-03
            3219             562     4.67846E-03     4.84976E-03
            2635             562     4.67846E-03     4.84976E-03
            3218             562     4.67846E-03     4.84976E-03
            2636             562     4.67846E-03     4.84976E-03
            3219             563     4.80711E-03     4.97834E-03
            2637             563     4.80711E-03     4.97834E-03
            3220             563     4.80711E-03     4.97834E-03
            2636             563     4.80711E-03     4.97834E-03
            2638             564     4.94319E-03     5.11394E-03
            3221             564     4.94319E-03     5.11394E-03
            3220             564     4.94319E-03     5.11394E-03
            2637             564     4.94319E-03     5.11394E-03
            3222             565     5.08535E-03     5.25571E-03
            3221             565     5.08535E-03     5.25571E-03
            2639             565     5.08535E-03     5.25571E-03
            2638             565     5.08535E-03     5.25571E-03
            3222             566     5.23253E-03     5.40290E-03
            3223             566     5.23253E-03     5.40290E-03
            2639             566     5.23253E-03     5.40290E-03
            2640             566     5.23253E-03     5.40290E-03
            3224             567     5.39209E-03     5.56332E-03
            2641             567     5.39209E-03     5.56332E-03
            3223             567     5.39209E-03     5.56332E-03
            2640             567     5.39209E-03     5.56332E-03
            3225             568     5.59837E-03     5.77853E-03
            2642             568     5.59837E-03     5.77853E-03
            2641             568     5.59837E-03     5.77853E-03
            3224             568     5.59837E-03     5.77853E-03
            2642             569     473.657E-06     491.191E-06
            2659             569     473.657E-06     491.191E-06
            2916             569     473.657E-06     491.191E-06
            2921             569     473.657E-06     491.191E-06
            2921             570     323.330E-06     307.576E-06
            2926             570     323.330E-06     307.576E-06
            2676             570     323.330E-06     307.576E-06
            2659             570     323.330E-06     307.576E-06
            2693             571     159.003E-06     180.363E-06
            2931             571     159.003E-06     180.363E-06
            2676             571     159.003E-06     180.363E-06
            2926             571     159.003E-06     180.363E-06
            2693             572     111.190E-06     151.982E-06
            2936             572     111.190E-06     151.982E-06
            2710             572     111.190E-06     151.982E-06
            2931             572     111.190E-06     151.982E-06
            2709             573     147.279E-06     161.713E-06
            2710             573     147.279E-06     161.713E-06
            2709             574     243.737E-06     204.281E-06
            2708             574     243.737E-06     204.281E-06
            2708             575     285.073E-06     250.648E-06
            2707             575     285.073E-06     250.648E-06
            2707             576     308.407E-06     274.890E-06
            2706             576     308.407E-06     274.890E-06
            2706             577     312.732E-06     279.967E-06
            2705             577     312.732E-06     279.967E-06
            2704             578     311.486E-06     279.965E-06
            2705             578     311.486E-06     279.965E-06
            2704             579     308.285E-06     278.367E-06
            2703             579     308.285E-06     278.367E-06
            2702             580     304.352E-06     275.743E-06
            2703             580     304.352E-06     275.743E-06
            2701             581     300.175E-06     273.673E-06
            2702             581     300.175E-06     273.673E-06
            2700             582     296.098E-06     271.646E-06
            2701             582     296.098E-06     271.646E-06
            2700             583     292.046E-06     270.432E-06
            2699             583     292.046E-06     270.432E-06
            2698             584     288.079E-06     269.387E-06
            2699             584     288.079E-06     269.387E-06
            2697             585     284.722E-06     269.573E-06
            2698             585     284.722E-06     269.573E-06
            2697             586     280.169E-06     267.768E-06
            2696             586     280.169E-06     267.768E-06
            2695             587     274.370E-06     273.010E-06
            2696             587     274.370E-06     273.010E-06
            2695             588     256.428E-06     283.508E-06
            2694             588     256.428E-06     283.508E-06
            3038             589     259.973E-06     285.027E-06
            3055             589     259.973E-06     285.027E-06
            2694             589     259.973E-06     285.027E-06
            2677             589     259.973E-06     285.027E-06
            3021             590     279.139E-06     242.884E-06
            3038             590     279.139E-06     242.884E-06
            2677             590     279.139E-06     242.884E-06
            2660             590     279.139E-06     242.884E-06
            2660             591     271.472E-06     232.961E-06
            3021             591     271.472E-06     232.961E-06
            3004             591     271.472E-06     232.961E-06
            2643             591     271.472E-06     232.961E-06
            2643             592     238.692E-06     259.532E-06
            2987             592     238.692E-06     259.532E-06
            2626             592     238.692E-06     259.532E-06
            3004             592     238.692E-06     259.532E-06
            3250             601     111.190E-06     151.982E-06
            3022             601     111.190E-06     151.982E-06
            3245             601     111.190E-06     151.982E-06
            3039             601     111.190E-06     151.982E-06
            3022             602     159.003E-06     180.363E-06
            3005             602     159.003E-06     180.363E-06
            3240             602     159.003E-06     180.363E-06
            3245             602     159.003E-06     180.363E-06
            2988             603     323.330E-06     307.576E-06
            3240             603     323.330E-06     307.576E-06
            3235             603     323.330E-06     307.576E-06
            3005             603     323.330E-06     307.576E-06
            3235             604     473.657E-06     491.191E-06
            3230             604     473.657E-06     491.191E-06
            2988             604     473.657E-06     491.191E-06
            2971             604     473.657E-06     491.191E-06
            2920             605     37.4730E-03     37.6054E-03
            2885             605     37.4730E-03     37.6054E-03
            2919             605     37.4730E-03     37.6054E-03
            2884             605     37.4730E-03     37.6054E-03
            2918             606     33.8194E-03     33.9723E-03
            2883             606     33.8194E-03     33.9723E-03
            2884             606     33.8194E-03     33.9723E-03
            2919             606     33.8194E-03     33.9723E-03
            2918             607     27.6395E-03     27.8322E-03
            2883             607     27.6395E-03     27.8322E-03
            2882             607     27.6395E-03     27.8322E-03
            2917             607     27.6395E-03     27.8322E-03
            2917             608     19.6639E-03     19.8759E-03
            2916             608     19.6639E-03     19.8759E-03
            2881             608     19.6639E-03     19.8759E-03
            2882             608     19.6639E-03     19.8759E-03
            2920             611     498.350E-06     484.840E-06
            3231             611     498.350E-06     484.840E-06
            2925             611     498.350E-06     484.840E-06
            3226             611     498.350E-06     484.840E-06
            3231             612     499.522E-06     494.860E-06
            2930             612     499.522E-06     494.860E-06
            3236             612     499.522E-06     494.860E-06
            2925             612     499.522E-06     494.860E-06
            2935             613     497.972E-06     491.927E-06
            3236             613     497.972E-06     491.927E-06
            3241             613     497.972E-06     491.927E-06
            2930             613     497.972E-06     491.927E-06
            3246             614     498.340E-06     486.269E-06
            2940             614     498.340E-06     486.269E-06
            2935             614     498.340E-06     486.269E-06
            3241             614     498.340E-06     486.269E-06
            2940             615     462.565E-06     454.776E-06
            2939             615     462.565E-06     454.776E-06
            2938             616     367.116E-06     362.925E-06
            2939             616     367.116E-06     362.925E-06
            2937             617     219.212E-06     232.246E-06
            2938             617     219.212E-06     232.246E-06
            2936             618     146.864E-06     196.857E-06
            2937             618     146.864E-06     196.857E-06
            3054             619     256.428E-06     283.508E-06
            3055             619     256.428E-06     283.508E-06
            3054             620     274.370E-06     273.010E-06
            3053             620     274.370E-06     273.010E-06
            3052             621     280.169E-06     267.768E-06
            3053             621     280.169E-06     267.768E-06
            3051             622     284.722E-06     269.573E-06
            3052             622     284.722E-06     269.573E-06
            3050             623     288.079E-06     269.387E-06
            3051             623     288.079E-06     269.387E-06
            3050             624     292.046E-06     270.432E-06
            3049             624     292.046E-06     270.432E-06
            3048             625     296.098E-06     271.646E-06
            3049             625     296.098E-06     271.646E-06
            3048             626     300.175E-06     273.673E-06
            3047             626     300.175E-06     273.673E-06
            3046             627     304.352E-06     275.743E-06
            3047             627     304.352E-06     275.743E-06
            3045             628     308.285E-06     278.367E-06
            3046             628     308.285E-06     278.367E-06
            3044             629     311.486E-06     279.965E-06
            3045             629     311.486E-06     279.965E-06
            3043             630     312.732E-06     279.967E-06
            3044             630     312.732E-06     279.967E-06
            3042             631     308.407E-06     274.890E-06
            3043             631     308.407E-06     274.890E-06
            3042             632     285.073E-06     250.648E-06
            3041             632     285.073E-06     250.648E-06
            3040             633     243.737E-06     204.281E-06
            3041             633     243.737E-06     204.281E-06
            3040             634     147.279E-06     161.713E-06
            3039             634     147.279E-06     161.713E-06
            3249             635     146.864E-06     196.857E-06
            3250             635     146.864E-06     196.857E-06
            3248             636     219.212E-06     232.246E-06
            3249             636     219.212E-06     232.246E-06
            3247             637     367.116E-06     362.925E-06
            3248             637     367.116E-06     362.925E-06
            3247             638     462.565E-06     454.776E-06
            3246             638     462.565E-06     454.776E-06
               1             639     12.6602E-03     12.2976E-03
              19             639     12.6602E-03     12.2976E-03
               2             639     12.6602E-03     12.2976E-03
              18             639     12.6602E-03     12.2976E-03
              20             640     13.1838E-03     13.2590E-03
               2             640     13.1838E-03     13.2590E-03
               3             640     13.1838E-03     13.2590E-03
              19             640     13.1838E-03     13.2590E-03
               4             641     13.0199E-03     13.0017E-03
              21             641     13.0199E-03     13.0017E-03
              20             641     13.0199E-03     13.0017E-03
               3             641     13.0199E-03     13.0017E-03
              22             642     13.0868E-03     13.1008E-03
              21             642     13.0868E-03     13.1008E-03
               4             642     13.0868E-03     13.1008E-03
               5             642     13.0868E-03     13.1008E-03
               6             643     13.1060E-03     13.1181E-03
              22             643     13.1060E-03     13.1181E-03
               5             643     13.1060E-03     13.1181E-03
              23             643     13.1060E-03     13.1181E-03
               6             644     13.1529E-03     13.1713E-03
               7             644     13.1529E-03     13.1713E-03
              24             644     13.1529E-03     13.1713E-03
              23             644     13.1529E-03     13.1713E-03
               7             645     13.2063E-03     13.2290E-03
              25             645     13.2063E-03     13.2290E-03
               8             645     13.2063E-03     13.2290E-03
              24             645     13.2063E-03     13.2290E-03
               9             646     13.2716E-03     13.2990E-03
               8             646     13.2716E-03     13.2990E-03
              26             646     13.2716E-03     13.2990E-03
              25             646     13.2716E-03     13.2990E-03
              27             647     13.3484E-03     13.3799E-03
              10             647     13.3484E-03     13.3799E-03
               9             647     13.3484E-03     13.3799E-03
              26             647     13.3484E-03     13.3799E-03
              28             648     13.4329E-03     13.4699E-03
              10             648     13.4329E-03     13.4699E-03
              11             648     13.4329E-03     13.4699E-03
              27             648     13.4329E-03     13.4699E-03
              12             649     13.5379E-03     13.5754E-03
              28             649     13.5379E-03     13.5754E-03
              11             649     13.5379E-03     13.5754E-03
              29             649     13.5379E-03     13.5754E-03
              30             650     13.6203E-03     13.6734E-03
              29             650     13.6203E-03     13.6734E-03
              13             650     13.6203E-03     13.6734E-03
              12             650     13.6203E-03     13.6734E-03
              14             651     13.8278E-03     13.8470E-03
              13             651     13.8278E-03     13.8470E-03
              30             651     13.8278E-03     13.8470E-03
              31             651     13.8278E-03     13.8470E-03
              14             652     13.6469E-03     13.7941E-03
              31             652     13.6469E-03     13.7941E-03
              15             652     13.6469E-03     13.7941E-03
              32             652     13.6469E-03     13.7941E-03
              15             653     14.9500E-03     14.7145E-03
              33             653     14.9500E-03     14.7145E-03
              16             653     14.9500E-03     14.7145E-03
              32             653     14.9500E-03     14.7145E-03
              17             654     12.1713E-03     13.8139E-03
              34             654     12.1713E-03     13.8139E-03
              16             654     12.1713E-03     13.8139E-03
              33             654     12.1713E-03     13.8139E-03
              18             655     13.6367E-03     13.9518E-03
              35             655     13.6367E-03     13.9518E-03
              19             655     13.6367E-03     13.9518E-03
              36             655     13.6367E-03     13.9518E-03
              20             656     14.6581E-03     14.7090E-03
              19             656     14.6581E-03     14.7090E-03
              36             656     14.6581E-03     14.7090E-03
              37             656     14.6581E-03     14.7090E-03
              20             657     15.0422E-03     14.9069E-03
              21             657     15.0422E-03     14.9069E-03
              38             657     15.0422E-03     14.9069E-03
              37             657     15.0422E-03     14.9069E-03
              39             658     15.5365E-03     15.3656E-03
              22             658     15.5365E-03     15.3656E-03
              21             658     15.5365E-03     15.3656E-03
              38             658     15.5365E-03     15.3656E-03
              23             659     15.9860E-03     15.7662E-03
              22             659     15.9860E-03     15.7662E-03
              40             659     15.9860E-03     15.7662E-03
              39             659     15.9860E-03     15.7662E-03
              24             660     16.4703E-03     16.2341E-03
              40             660     16.4703E-03     16.2341E-03
              41             660     16.4703E-03     16.2341E-03
              23             660     16.4703E-03     16.2341E-03
              42             661     16.9824E-03     16.7315E-03
              41             661     16.9824E-03     16.7315E-03
              25             661     16.9824E-03     16.7315E-03
              24             661     16.9824E-03     16.7315E-03
              26             662     17.5187E-03     17.2700E-03
              25             662     17.5187E-03     17.2700E-03
              43             662     17.5187E-03     17.2700E-03
              42             662     17.5187E-03     17.2700E-03
              26             663     18.0889E-03     17.8486E-03
              44             663     18.0889E-03     17.8486E-03
              43             663     18.0889E-03     17.8486E-03
              27             663     18.0889E-03     17.8486E-03
              44             664     18.6318E-03     18.4158E-03
              45             664     18.6318E-03     18.4158E-03
              28             664     18.6318E-03     18.4158E-03
              27             664     18.6318E-03     18.4158E-03
              46             665     19.1787E-03     18.9584E-03
              29             665     19.1787E-03     18.9584E-03
              45             665     19.1787E-03     18.9584E-03
              28             665     19.1787E-03     18.9584E-03
              30             666     19.5362E-03     19.3628E-03
              29             666     19.5362E-03     19.3628E-03
              47             666     19.5362E-03     19.3628E-03
              46             666     19.5362E-03     19.3628E-03
              48             667     19.7220E-03     19.4731E-03
              31             667     19.7220E-03     19.4731E-03
              30             667     19.7220E-03     19.4731E-03
              47             667     19.7220E-03     19.4731E-03
              48             668     19.1202E-03     18.9000E-03
              31             668     19.1202E-03     18.9000E-03
              49             668     19.1202E-03     18.9000E-03
              32             668     19.1202E-03     18.9000E-03
              32             669     18.2551E-03     17.5556E-03
              50             669     18.2551E-03     17.5556E-03
              49             669     18.2551E-03     17.5556E-03
              33             669     18.2551E-03     17.5556E-03
              33             670     13.8468E-03     14.3162E-03
              34             670     13.8468E-03     14.3162E-03
              51             670     13.8468E-03     14.3162E-03
              50             670     13.8468E-03     14.3162E-03
              52             671     14.3090E-03     15.1021E-03
              35             671     14.3090E-03     15.1021E-03
              36             671     14.3090E-03     15.1021E-03
              53             671     14.3090E-03     15.1021E-03
              53             672     15.7915E-03     16.0172E-03
              36             672     15.7915E-03     16.0172E-03
              54             672     15.7915E-03     16.0172E-03
              37             672     15.7915E-03     16.0172E-03
              37             673     16.8574E-03     16.4739E-03
              54             673     16.8574E-03     16.4739E-03
              38             673     16.8574E-03     16.4739E-03
              55             673     16.8574E-03     16.4739E-03
              39             674     17.8078E-03     17.1238E-03
              55             674     17.8078E-03     17.1238E-03
              38             674     17.8078E-03     17.1238E-03
              56             674     17.8078E-03     17.1238E-03
              39             675     18.7355E-03     17.8232E-03
              56             675     18.7355E-03     17.8232E-03
              40             675     18.7355E-03     17.8232E-03
              57             675     18.7355E-03     17.8232E-03
              40             676     19.7379E-03     18.6129E-03
              58             676     19.7379E-03     18.6129E-03
              41             676     19.7379E-03     18.6129E-03
              57             676     19.7379E-03     18.6129E-03
              58             677     20.8113E-03     19.5100E-03
              59             677     20.8113E-03     19.5100E-03
              41             677     20.8113E-03     19.5100E-03
              42             677     20.8113E-03     19.5100E-03
              42             678     21.9695E-03     20.5090E-03
              60             678     21.9695E-03     20.5090E-03
              43             678     21.9695E-03     20.5090E-03
              59             678     21.9695E-03     20.5090E-03
              43             679     23.1777E-03     21.5841E-03
              44             679     23.1777E-03     21.5841E-03
              61             679     23.1777E-03     21.5841E-03
              60             679     23.1777E-03     21.5841E-03
              62             680     24.4345E-03     22.7037E-03
              44             680     24.4345E-03     22.7037E-03
              45             680     24.4345E-03     22.7037E-03
              61             680     24.4345E-03     22.7037E-03
              45             681     25.6462E-03     23.8145E-03
              46             681     25.6462E-03     23.8145E-03
              62             681     25.6462E-03     23.8145E-03
              63             681     25.6462E-03     23.8145E-03
              47             682     26.7700E-03     24.7752E-03
              46             682     26.7700E-03     24.7752E-03
              63             682     26.7700E-03     24.7752E-03
              64             682     26.7700E-03     24.7752E-03
              64             683     27.4182E-03     25.3200E-03
              65             683     27.4182E-03     25.3200E-03
              48             683     27.4182E-03     25.3200E-03
              47             683     27.4182E-03     25.3200E-03
              65             684     27.0378E-03     24.7682E-03
              49             684     27.0378E-03     24.7682E-03
              66             684     27.0378E-03     24.7682E-03
              48             684     27.0378E-03     24.7682E-03
              50             685     24.3462E-03     21.8860E-03
              49             685     24.3462E-03     21.8860E-03
              67             685     24.3462E-03     21.8860E-03
              66             685     24.3462E-03     21.8860E-03
              51             686     17.3223E-03     15.9955E-03
              68             686     17.3223E-03     15.9955E-03
              67             686     17.3223E-03     15.9955E-03
              50             686     17.3223E-03     15.9955E-03
              53             687     13.7799E-03     13.3228E-03
              52             687     13.7799E-03     13.3228E-03
              69             687     13.7799E-03     13.3228E-03
              70             687     13.7799E-03     13.3228E-03
              54             688     15.0988E-03     15.1617E-03
              71             688     15.0988E-03     15.1617E-03
              70             688     15.0988E-03     15.1617E-03
              53             688     15.0988E-03     15.1617E-03
              71             689     15.9810E-03     15.9152E-03
              54             689     15.9810E-03     15.9152E-03
              55             689     15.9810E-03     15.9152E-03
              72             689     15.9810E-03     15.9152E-03
              55             690     16.7647E-03     16.5170E-03
              72             690     16.7647E-03     16.5170E-03
              56             690     16.7647E-03     16.5170E-03
              73             690     16.7647E-03     16.5170E-03
              56             691     17.5673E-03     17.2102E-03
              74             691     17.5673E-03     17.2102E-03
              57             691     17.5673E-03     17.2102E-03
              73             691     17.5673E-03     17.2102E-03
              74             692     18.5102E-03     18.0526E-03
              58             692     18.5102E-03     18.0526E-03
              57             692     18.5102E-03     18.0526E-03
              75             692     18.5102E-03     18.0526E-03
              58             693     19.5952E-03     19.0725E-03
              75             693     19.5952E-03     19.0725E-03
              59             693     19.5952E-03     19.0725E-03
              76             693     19.5952E-03     19.0725E-03
              60             694     20.8139E-03     20.2289E-03
              59             694     20.8139E-03     20.2289E-03
              76             694     20.8139E-03     20.2289E-03
              77             694     20.8139E-03     20.2289E-03
              78             695     22.1535E-03     21.5168E-03
              60             695     22.1535E-03     21.5168E-03
              61             695     22.1535E-03     21.5168E-03
              77             695     22.1535E-03     21.5168E-03
              61             696     23.6013E-03     22.9203E-03
              79             696     23.6013E-03     22.9203E-03
              78             696     23.6013E-03     22.9203E-03
              62             696     23.6013E-03     22.9203E-03
              79             697     25.1521E-03     24.4282E-03
              80             697     25.1521E-03     24.4282E-03
              62             697     25.1521E-03     24.4282E-03
              63             697     25.1521E-03     24.4282E-03
              80             698     26.7333E-03     25.9744E-03
              81             698     26.7333E-03     25.9744E-03
              64             698     26.7333E-03     25.9744E-03
              63             698     26.7333E-03     25.9744E-03
              64             699     28.1954E-03     27.4012E-03
              81             699     28.1954E-03     27.4012E-03
              82             699     28.1954E-03     27.4012E-03
              65             699     28.1954E-03     27.4012E-03
              83             700     28.8490E-03     28.1683E-03
              82             700     28.8490E-03     28.1683E-03
              66             700     28.8490E-03     28.1683E-03
              65             700     28.8490E-03     28.1683E-03
              84             701     26.5729E-03     26.5878E-03
              67             701     26.5729E-03     26.5878E-03
              83             701     26.5729E-03     26.5878E-03
              66             701     26.5729E-03     26.5878E-03
              84             702     23.3854E-03     23.6286E-03
              67             702     23.3854E-03     23.6286E-03
              68             702     23.3854E-03     23.6286E-03
              85             702     23.3854E-03     23.6286E-03
              70             703     13.0887E-03     11.6572E-03
              86             703     13.0887E-03     11.6572E-03
              87             703     13.0887E-03     11.6572E-03
              69             703     13.0887E-03     11.6572E-03
              71             704     14.4605E-03     13.9473E-03
              87             704     14.4605E-03     13.9473E-03
              70             704     14.4605E-03     13.9473E-03
              88             704     14.4605E-03     13.9473E-03
              88             705     15.1534E-03     15.2780E-03
              89             705     15.1534E-03     15.2780E-03
              72             705     15.1534E-03     15.2780E-03
              71             705     15.1534E-03     15.2780E-03
              73             706     15.7111E-03     15.9237E-03
              90             706     15.7111E-03     15.9237E-03
              89             706     15.7111E-03     15.9237E-03
              72             706     15.7111E-03     15.9237E-03
              73             707     16.4167E-03     16.6542E-03
              91             707     16.4167E-03     16.6542E-03
              90             707     16.4167E-03     16.6542E-03
              74             707     16.4167E-03     16.6542E-03
              91             708     17.3060E-03     17.6011E-03
              75             708     17.3060E-03     17.6011E-03
              92             708     17.3060E-03     17.6011E-03
              74             708     17.3060E-03     17.6011E-03
              93             709     18.3980E-03     18.7251E-03
              76             709     18.3980E-03     18.7251E-03
              92             709     18.3980E-03     18.7251E-03
              75             709     18.3980E-03     18.7251E-03
              94             710     19.6598E-03     20.0251E-03
              77             710     19.6598E-03     20.0251E-03
              76             710     19.6598E-03     20.0251E-03
              93             710     19.6598E-03     20.0251E-03
              77             711     21.0852E-03     21.4718E-03
              95             711     21.0852E-03     21.4718E-03
              78             711     21.0852E-03     21.4718E-03
              94             711     21.0852E-03     21.4718E-03
              96             712     22.6420E-03     23.0594E-03
              78             712     22.6420E-03     23.0594E-03
              79             712     22.6420E-03     23.0594E-03
              95             712     22.6420E-03     23.0594E-03
              97             713     24.3582E-03     24.7807E-03
              79             713     24.3582E-03     24.7807E-03
              80             713     24.3582E-03     24.7807E-03
              96             713     24.3582E-03     24.7807E-03
              97             714     26.1495E-03     26.6364E-03
              81             714     26.1495E-03     26.6364E-03
              98             714     26.1495E-03     26.6364E-03
              80             714     26.1495E-03     26.6364E-03
              81             715     27.9831E-03     28.4882E-03
              99             715     27.9831E-03     28.4882E-03
              82             715     27.9831E-03     28.4882E-03
              98             715     27.9831E-03     28.4882E-03
             100             716     29.5155E-03     30.1887E-03
              83             716     29.5155E-03     30.1887E-03
              99             716     29.5155E-03     30.1887E-03
              82             716     29.5155E-03     30.1887E-03
             101             717     29.7580E-03     30.7223E-03
              84             717     29.7580E-03     30.7223E-03
              83             717     29.7580E-03     30.7223E-03
             100             717     29.7580E-03     30.7223E-03
              85             718     30.4643E-03     31.2823E-03
             102             718     30.4643E-03     31.2823E-03
             101             718     30.4643E-03     31.2823E-03
              84             718     30.4643E-03     31.2823E-03
              87             719     12.4757E-03     11.4726E-03
             104             719     12.4757E-03     11.4726E-03
             103             719     12.4757E-03     11.4726E-03
              86             719     12.4757E-03     11.4726E-03
             105             720     13.5998E-03     13.3308E-03
             104             720     13.5998E-03     13.3308E-03
              88             720     13.5998E-03     13.3308E-03
              87             720     13.5998E-03     13.3308E-03
              88             721     14.0794E-03     14.3828E-03
             106             721     14.0794E-03     14.3828E-03
              89             721     14.0794E-03     14.3828E-03
             105             721     14.0794E-03     14.3828E-03
             107             722     14.5131E-03     15.1902E-03
             106             722     14.5131E-03     15.1902E-03
              89             722     14.5131E-03     15.1902E-03
              90             722     14.5131E-03     15.1902E-03
             107             723     15.1665E-03     16.0941E-03
             108             723     15.1665E-03     16.0941E-03
              90             723     15.1665E-03     16.0941E-03
              91             723     15.1665E-03     16.0941E-03
             108             724     16.0490E-03     17.1583E-03
             109             724     16.0490E-03     17.1583E-03
              92             724     16.0490E-03     17.1583E-03
              91             724     16.0490E-03     17.1583E-03
             109             725     17.1474E-03     18.4097E-03
             110             725     17.1474E-03     18.4097E-03
              92             725     17.1474E-03     18.4097E-03
              93             725     17.1474E-03     18.4097E-03
             111             726     18.4431E-03     19.8202E-03
              93             726     18.4431E-03     19.8202E-03
             110             726     18.4431E-03     19.8202E-03
              94             726     18.4431E-03     19.8202E-03
              95             727     19.8889E-03     21.3587E-03
             112             727     19.8889E-03     21.3587E-03
             111             727     19.8889E-03     21.3587E-03
              94             727     19.8889E-03     21.3587E-03
             112             728     21.4865E-03     23.0188E-03
             113             728     21.4865E-03     23.0188E-03
              96             728     21.4865E-03     23.0188E-03
              95             728     21.4865E-03     23.0188E-03
              97             729     23.1649E-03     24.7774E-03
              96             729     23.1649E-03     24.7774E-03
             113             729     23.1649E-03     24.7774E-03
             114             729     23.1649E-03     24.7774E-03
             114             730     24.9964E-03     26.6446E-03
              97             730     24.9964E-03     26.6446E-03
             115             730     24.9964E-03     26.6446E-03
              98             730     24.9964E-03     26.6446E-03
             116             731     26.8475E-03     28.6356E-03
              99             731     26.8475E-03     28.6356E-03
              98             731     26.8475E-03     28.6356E-03
             115             731     26.8475E-03     28.6356E-03
             116             732     28.9083E-03     30.7531E-03
             100             732     28.9083E-03     30.7531E-03
             117             732     28.9083E-03     30.7531E-03
              99             732     28.9083E-03     30.7531E-03
             101             733     32.5811E-03     33.9348E-03
             117             733     32.5811E-03     33.9348E-03
             118             733     32.5811E-03     33.9348E-03
             100             733     32.5811E-03     33.9348E-03
             102             734     37.8968E-03     38.3179E-03
             119             734     37.8968E-03     38.3179E-03
             101             734     37.8968E-03     38.3179E-03
             118             734     37.8968E-03     38.3179E-03
             103             735     12.4646E-03     11.6767E-03
             104             735     12.4646E-03     11.6767E-03
             120             735     12.4646E-03     11.6767E-03
             121             735     12.4646E-03     11.6767E-03
             104             736     12.5136E-03     12.5856E-03
             121             736     12.5136E-03     12.5856E-03
             105             736     12.5136E-03     12.5856E-03
             122             736     12.5136E-03     12.5856E-03
             106             737     12.6524E-03     13.3143E-03
             122             737     12.6524E-03     13.3143E-03
             123             737     12.6524E-03     13.3143E-03
             105             737     12.6524E-03     13.3143E-03
             107             738     13.1288E-03     14.3761E-03
             124             738     13.1288E-03     14.3761E-03
             106             738     13.1288E-03     14.3761E-03
             123             738     13.1288E-03     14.3761E-03
             124             739     13.7851E-03     15.4844E-03
             125             739     13.7851E-03     15.4844E-03
             108             739     13.7851E-03     15.4844E-03
             107             739     13.7851E-03     15.4844E-03
             125             740     14.6917E-03     16.7112E-03
             108             740     14.6917E-03     16.7112E-03
             126             740     14.6917E-03     16.7112E-03
             109             740     14.6917E-03     16.7112E-03
             126             741     15.8108E-03     18.0873E-03
             110             741     15.8108E-03     18.0873E-03
             109             741     15.8108E-03     18.0873E-03
             127             741     15.8108E-03     18.0873E-03
             127             742     17.1147E-03     19.5756E-03
             110             742     17.1147E-03     19.5756E-03
             111             742     17.1147E-03     19.5756E-03
             128             742     17.1147E-03     19.5756E-03
             128             743     18.5726E-03     21.1780E-03
             129             743     18.5726E-03     21.1780E-03
             111             743     18.5726E-03     21.1780E-03
             112             743     18.5726E-03     21.1780E-03
             130             744     20.1262E-03     22.8385E-03
             113             744     20.1262E-03     22.8385E-03
             112             744     20.1262E-03     22.8385E-03
             129             744     20.1262E-03     22.8385E-03
             113             745     21.7796E-03     24.5706E-03
             130             745     21.7796E-03     24.5706E-03
             131             745     21.7796E-03     24.5706E-03
             114             745     21.7796E-03     24.5706E-03
             131             746     23.4713E-03     26.3313E-03
             115             746     23.4713E-03     26.3313E-03
             114             746     23.4713E-03     26.3313E-03
             132             746     23.4713E-03     26.3313E-03
             132             747     25.3690E-03     28.2920E-03
             133             747     25.3690E-03     28.2920E-03
             115             747     25.3690E-03     28.2920E-03
             116             747     25.3690E-03     28.2920E-03
             133             748     27.7163E-03     30.6707E-03
             116             748     27.7163E-03     30.6707E-03
             117             748     27.7163E-03     30.6707E-03
             134             748     27.7163E-03     30.6707E-03
             118             749     32.2363E-03     35.1637E-03
             134             749     32.2363E-03     35.1637E-03
             117             749     32.2363E-03     35.1637E-03
             135             749     32.2363E-03     35.1637E-03
             118             750     42.3447E-03     44.7118E-03
             136             750     42.3447E-03     44.7118E-03
             119             750     42.3447E-03     44.7118E-03
             135             750     42.3447E-03     44.7118E-03
             138             751     15.3151E-03     16.2610E-03
             120             751     15.3151E-03     16.2610E-03
             137             751     15.3151E-03     16.2610E-03
             121             751     15.3151E-03     16.2610E-03
             139             752     16.4681E-03     16.6089E-03
             121             752     16.4681E-03     16.6089E-03
             122             752     16.4681E-03     16.6089E-03
             138             752     16.4681E-03     16.6089E-03
             122             753     17.5839E-03     17.7090E-03
             123             753     17.5839E-03     17.7090E-03
             139             753     17.5839E-03     17.7090E-03
             140             753     17.5839E-03     17.7090E-03
             141             754     19.0652E-03     19.3456E-03
             140             754     19.0652E-03     19.3456E-03
             124             754     19.0652E-03     19.3456E-03
             123             754     19.0652E-03     19.3456E-03
             141             755     20.7737E-03     21.1570E-03
             125             755     20.7737E-03     21.1570E-03
             142             755     20.7737E-03     21.1570E-03
             124             755     20.7737E-03     21.1570E-03
             142             756     22.7194E-03     23.2142E-03
             125             756     22.7194E-03     23.2142E-03
             143             756     22.7194E-03     23.2142E-03
             126             756     22.7194E-03     23.2142E-03
             144             757     24.8732E-03     25.4226E-03
             127             757     24.8732E-03     25.4226E-03
             126             757     24.8732E-03     25.4226E-03
             143             757     24.8732E-03     25.4226E-03
             145             758     27.1707E-03     27.7714E-03
             128             758     27.1707E-03     27.7714E-03
             144             758     27.1707E-03     27.7714E-03
             127             758     27.1707E-03     27.7714E-03
             146             759     29.5649E-03     30.1902E-03
             145             759     29.5649E-03     30.1902E-03
             129             759     29.5649E-03     30.1902E-03
             128             759     29.5649E-03     30.1902E-03
             129             760     31.9856E-03     32.6125E-03
             146             760     31.9856E-03     32.6125E-03
             147             760     31.9856E-03     32.6125E-03
             130             760     31.9856E-03     32.6125E-03
             130             761     34.3681E-03     34.9758E-03
             131             761     34.3681E-03     34.9758E-03
             147             761     34.3681E-03     34.9758E-03
             148             761     34.3681E-03     34.9758E-03
             131             762     36.5849E-03     37.1170E-03
             132             762     36.5849E-03     37.1170E-03
             149             762     36.5849E-03     37.1170E-03
             148             762     36.5849E-03     37.1170E-03
             150             763     38.6163E-03     39.0218E-03
             132             763     38.6163E-03     39.0218E-03
             133             763     38.6163E-03     39.0218E-03
             149             763     38.6163E-03     39.0218E-03
             151             764     40.3764E-03     40.5790E-03
             133             764     40.3764E-03     40.5790E-03
             150             764     40.3764E-03     40.5790E-03
             134             764     40.3764E-03     40.5790E-03
             152             765     42.1004E-03     42.1113E-03
             134             765     42.1004E-03     42.1113E-03
             151             765     42.1004E-03     42.1113E-03
             135             765     42.1004E-03     42.1113E-03
             152             766     44.8982E-03     45.5442E-03
             153             766     44.8982E-03     45.5442E-03
             135             766     44.8982E-03     45.5442E-03
             136             766     44.8982E-03     45.5442E-03
             137             767     17.8300E-03     19.8954E-03
             154             767     17.8300E-03     19.8954E-03
             155             767     17.8300E-03     19.8954E-03
             138             767     17.8300E-03     19.8954E-03
             138             768     19.8457E-03     20.5957E-03
             155             768     19.8457E-03     20.5957E-03
             156             768     19.8457E-03     20.5957E-03
             139             768     19.8457E-03     20.5957E-03
             139             769     22.0941E-03     21.8135E-03
             140             769     22.0941E-03     21.8135E-03
             157             769     22.0941E-03     21.8135E-03
             156             769     22.0941E-03     21.8135E-03
             140             770     24.5880E-03     23.8462E-03
             157             770     24.5880E-03     23.8462E-03
             141             770     24.5880E-03     23.8462E-03
             158             770     24.5880E-03     23.8462E-03
             158             771     27.3699E-03     26.3731E-03
             159             771     27.3699E-03     26.3731E-03
             142             771     27.3699E-03     26.3731E-03
             141             771     27.3699E-03     26.3731E-03
             142             772     30.4646E-03     29.2929E-03
             159             772     30.4646E-03     29.2929E-03
             160             772     30.4646E-03     29.2929E-03
             143             772     30.4646E-03     29.2929E-03
             144             773     33.7719E-03     32.4810E-03
             143             773     33.7719E-03     32.4810E-03
             161             773     33.7719E-03     32.4810E-03
             160             773     33.7719E-03     32.4810E-03
             145             774     37.2365E-03     35.8559E-03
             161             774     37.2365E-03     35.8559E-03
             162             774     37.2365E-03     35.8559E-03
             144             774     37.2365E-03     35.8559E-03
             162             775     40.8033E-03     39.3334E-03
             145             775     40.8033E-03     39.3334E-03
             163             775     40.8033E-03     39.3334E-03
             146             775     40.8033E-03     39.3334E-03
             163             776     44.3776E-03     42.8420E-03
             146             776     44.3776E-03     42.8420E-03
             147             776     44.3776E-03     42.8420E-03
             164             776     44.3776E-03     42.8420E-03
             147             777     47.8988E-03     46.2472E-03
             164             777     47.8988E-03     46.2472E-03
             165             777     47.8988E-03     46.2472E-03
             148             777     47.8988E-03     46.2472E-03
             166             778     51.1643E-03     49.4121E-03
             165             778     51.1643E-03     49.4121E-03
             149             778     51.1643E-03     49.4121E-03
             148             778     51.1643E-03     49.4121E-03
             166             779     53.8517E-03     51.9515E-03
             150             779     53.8517E-03     51.9515E-03
             167             779     53.8517E-03     51.9515E-03
             149             779     53.8517E-03     51.9515E-03
             150             780     55.5034E-03     53.4056E-03
             151             780     55.5034E-03     53.4056E-03
             167             780     55.5034E-03     53.4056E-03
             168             780     55.5034E-03     53.4056E-03
             152             781     54.7857E-03     52.7529E-03
             151             781     54.7857E-03     52.7529E-03
             168             781     54.7857E-03     52.7529E-03
             169             781     54.7857E-03     52.7529E-03
             169             782     50.3726E-03     48.4870E-03
             170             782     50.3726E-03     48.4870E-03
             152             782     50.3726E-03     48.4870E-03
             153             782     50.3726E-03     48.4870E-03
             155             783     16.9203E-03     16.8144E-03
             154             783     16.9203E-03     16.8144E-03
             172             783     16.9203E-03     16.8144E-03
             171             783     16.9203E-03     16.8144E-03
             173             784     18.0021E-03     18.6931E-03
             155             784     18.0021E-03     18.6931E-03
             156             784     18.0021E-03     18.6931E-03
             172             784     18.0021E-03     18.6931E-03
             173             785     19.8984E-03     20.1532E-03
             156             785     19.8984E-03     20.1532E-03
             174             785     19.8984E-03     20.1532E-03
             157             785     19.8984E-03     20.1532E-03
             158             786     22.3934E-03     22.2410E-03
             174             786     22.3934E-03     22.2410E-03
             157             786     22.3934E-03     22.2410E-03
             175             786     22.3934E-03     22.2410E-03
             158             787     25.3032E-03     24.9951E-03
             175             787     25.3032E-03     24.9951E-03
             159             787     25.3032E-03     24.9951E-03
             176             787     25.3032E-03     24.9951E-03
             160             788     28.5828E-03     28.1863E-03
             177             788     28.5828E-03     28.1863E-03
             176             788     28.5828E-03     28.1863E-03
             159             788     28.5828E-03     28.1863E-03
             161             789     32.1479E-03     31.7184E-03
             160             789     32.1479E-03     31.7184E-03
             178             789     32.1479E-03     31.7184E-03
             177             789     32.1479E-03     31.7184E-03
             161             790     35.9430E-03     35.4858E-03
             178             790     35.9430E-03     35.4858E-03
             162             790     35.9430E-03     35.4858E-03
             179             790     35.9430E-03     35.4858E-03
             179             791     39.8927E-03     39.4243E-03
             180             791     39.8927E-03     39.4243E-03
             162             791     39.8927E-03     39.4243E-03
             163             791     39.8927E-03     39.4243E-03
             164             792     43.9794E-03     43.4880E-03
             180             792     43.9794E-03     43.4880E-03
             163             792     43.9794E-03     43.4880E-03
             181             792     43.9794E-03     43.4880E-03
             181             793     48.0972E-03     47.6098E-03
             164             793     48.0972E-03     47.6098E-03
             165             793     48.0972E-03     47.6098E-03
             182             793     48.0972E-03     47.6098E-03
             166             794     52.1961E-03     51.7000E-03
             183             794     52.1961E-03     51.7000E-03
             182             794     52.1961E-03     51.7000E-03
             165             794     52.1961E-03     51.7000E-03
             183             795     55.8770E-03     55.4845E-03
             184             795     55.8770E-03     55.4845E-03
             166             795     55.8770E-03     55.4845E-03
             167             795     55.8770E-03     55.4845E-03
             185             796     58.5193E-03     58.4247E-03
             184             796     58.5193E-03     58.4247E-03
             167             796     58.5193E-03     58.4247E-03
             168             796     58.5193E-03     58.4247E-03
             185             797     58.7883E-03     59.2355E-03
             186             797     58.7883E-03     59.2355E-03
             169             797     58.7883E-03     59.2355E-03
             168             797     58.7883E-03     59.2355E-03
             186             798     57.7704E-03     58.6198E-03
             169             798     57.7704E-03     58.6198E-03
             170             798     57.7704E-03     58.6198E-03
             187             798     57.7704E-03     58.6198E-03
             171             799     15.1887E-03     13.7727E-03
             189             799     15.1887E-03     13.7727E-03
             188             799     15.1887E-03     13.7727E-03
             172             799     15.1887E-03     13.7727E-03
             172             800     16.4044E-03     16.0972E-03
             190             800     16.4044E-03     16.0972E-03
             189             800     16.4044E-03     16.0972E-03
             173             800     16.4044E-03     16.0972E-03
             191             801     18.0079E-03     18.3901E-03
             190             801     18.0079E-03     18.3901E-03
             174             801     18.0079E-03     18.3901E-03
             173             801     18.0079E-03     18.3901E-03
             192             802     20.4210E-03     20.8727E-03
             191             802     20.4210E-03     20.8727E-03
             174             802     20.4210E-03     20.8727E-03
             175             802     20.4210E-03     20.8727E-03
             192             803     23.4136E-03     23.8725E-03
             175             803     23.4136E-03     23.8725E-03
             176             803     23.4136E-03     23.8725E-03
             193             803     23.4136E-03     23.8725E-03
             177             804     26.8435E-03     27.3353E-03
             193             804     26.8435E-03     27.3353E-03
             194             804     26.8435E-03     27.3353E-03
             176             804     26.8435E-03     27.3353E-03
             177             805     30.6307E-03     31.1488E-03
             194             805     30.6307E-03     31.1488E-03
             195             805     30.6307E-03     31.1488E-03
             178             805     30.6307E-03     31.1488E-03
             178             806     34.6583E-03     35.2108E-03
             195             806     34.6583E-03     35.2108E-03
             179             806     34.6583E-03     35.2108E-03
             196             806     34.6583E-03     35.2108E-03
             180             807     38.8923E-03     39.4732E-03
             196             807     38.8923E-03     39.4732E-03
             197             807     38.8923E-03     39.4732E-03
             179             807     38.8923E-03     39.4732E-03
             197             808     43.2722E-03     43.8899E-03
             181             808     43.2722E-03     43.8899E-03
             180             808     43.2722E-03     43.8899E-03
             198             808     43.2722E-03     43.8899E-03
             181             809     47.7940E-03     48.4688E-03
             198             809     47.7940E-03     48.4688E-03
             182             809     47.7940E-03     48.4688E-03
             199             809     47.7940E-03     48.4688E-03
             200             810     52.3157E-03     53.1050E-03
             182             810     52.3157E-03     53.1050E-03
             199             810     52.3157E-03     53.1050E-03
             183             810     52.3157E-03     53.1050E-03
             183             811     56.8508E-03     57.7776E-03
             184             811     56.8508E-03     57.7776E-03
             200             811     56.8508E-03     57.7776E-03
             201             811     56.8508E-03     57.7776E-03
             185             812     60.6224E-03     61.9353E-03
             201             812     60.6224E-03     61.9353E-03
             202             812     60.6224E-03     61.9353E-03
             184             812     60.6224E-03     61.9353E-03
             185             813     63.0854E-03     64.8188E-03
             203             813     63.0854E-03     64.8188E-03
             202             813     63.0854E-03     64.8188E-03
             186             813     63.0854E-03     64.8188E-03
             186             814     65.9091E-03     66.9332E-03
             203             814     65.9091E-03     66.9332E-03
             187             814     65.9091E-03     66.9332E-03
             204             814     65.9091E-03     66.9332E-03
             205             815     13.5421E-03     11.7682E-03
             188             815     13.5421E-03     11.7682E-03
             189             815     13.5421E-03     11.7682E-03
             206             815     13.5421E-03     11.7682E-03
             190             816     14.4962E-03     13.8687E-03
             206             816     14.4962E-03     13.8687E-03
             207             816     14.4962E-03     13.8687E-03
             189             816     14.4962E-03     13.8687E-03
             208             817     16.1695E-03     16.6245E-03
             207             817     16.1695E-03     16.6245E-03
             191             817     16.1695E-03     16.6245E-03
             190             817     16.1695E-03     16.6245E-03
             192             818     18.4758E-03     19.5592E-03
             208             818     18.4758E-03     19.5592E-03
             209             818     18.4758E-03     19.5592E-03
             191             818     18.4758E-03     19.5592E-03
             209             819     21.5326E-03     22.8588E-03
             210             819     21.5326E-03     22.8588E-03
             192             819     21.5326E-03     22.8588E-03
             193             819     21.5326E-03     22.8588E-03
             210             820     25.1329E-03     26.5955E-03
             193             820     25.1329E-03     26.5955E-03
             194             820     25.1329E-03     26.5955E-03
             211             820     25.1329E-03     26.5955E-03
             211             821     29.0648E-03     30.6190E-03
             195             821     29.0648E-03     30.6190E-03
             212             821     29.0648E-03     30.6190E-03
             194             821     29.0648E-03     30.6190E-03
             195             822     33.2546E-03     34.8701E-03
             212             822     33.2546E-03     34.8701E-03
             213             822     33.2546E-03     34.8701E-03
             196             822     33.2546E-03     34.8701E-03
             214             823     37.6225E-03     39.2861E-03
             196             823     37.6225E-03     39.2861E-03
             213             823     37.6225E-03     39.2861E-03
             197             823     37.6225E-03     39.2861E-03
             198             824     42.1329E-03     43.8598E-03
             214             824     42.1329E-03     43.8598E-03
             215             824     42.1329E-03     43.8598E-03
             197             824     42.1329E-03     43.8598E-03
             215             825     46.7688E-03     48.5636E-03
             216             825     46.7688E-03     48.5636E-03
             198             825     46.7688E-03     48.5636E-03
             199             825     46.7688E-03     48.5636E-03
             216             826     51.5450E-03     53.4732E-03
             200             826     51.5450E-03     53.4732E-03
             217             826     51.5450E-03     53.4732E-03
             199             826     51.5450E-03     53.4732E-03
             218             827     56.4030E-03     58.4989E-03
             201             827     56.4030E-03     58.4989E-03
             217             827     56.4030E-03     58.4989E-03
             200             827     56.4030E-03     58.4989E-03
             218             828     61.8073E-03     63.8867E-03
             219             828     61.8073E-03     63.8867E-03
             202             828     61.8073E-03     63.8867E-03
             201             828     61.8073E-03     63.8867E-03
             203             829     67.5290E-03     69.3774E-03
             220             829     67.5290E-03     69.3774E-03
             219             829     67.5290E-03     69.3774E-03
             202             829     67.5290E-03     69.3774E-03
             204             830     73.1111E-03     74.8809E-03
             221             830     73.1111E-03     74.8809E-03
             203             830     73.1111E-03     74.8809E-03
             220             830     73.1111E-03     74.8809E-03
             206             831     12.4894E-03     10.5508E-03
             223             831     12.4894E-03     10.5508E-03
             205             831     12.4894E-03     10.5508E-03
             222             831     12.4894E-03     10.5508E-03
             206             832     12.8017E-03     12.3858E-03
             207             832     12.8017E-03     12.3858E-03
             223             832     12.8017E-03     12.3858E-03
             224             832     12.8017E-03     12.3858E-03
             207             833     13.9843E-03     14.9849E-03
             208             833     13.9843E-03     14.9849E-03
             224             833     13.9843E-03     14.9849E-03
             225             833     13.9843E-03     14.9849E-03
             208             834     16.3456E-03     18.2183E-03
             209             834     16.3456E-03     18.2183E-03
             225             834     16.3456E-03     18.2183E-03
             226             834     16.3456E-03     18.2183E-03
             227             835     19.5902E-03     21.9145E-03
             210             835     19.5902E-03     21.9145E-03
             226             835     19.5902E-03     21.9145E-03
             209             835     19.5902E-03     21.9145E-03
             227             836     23.3280E-03     25.8756E-03
             210             836     23.3280E-03     25.8756E-03
             211             836     23.3280E-03     25.8756E-03
             228             836     23.3280E-03     25.8756E-03
             211             837     27.3986E-03     30.0631E-03
             212             837     27.3986E-03     30.0631E-03
             229             837     27.3986E-03     30.0631E-03
             228             837     27.3986E-03     30.0631E-03
             212             838     31.6698E-03     34.4013E-03
             230             838     31.6698E-03     34.4013E-03
             229             838     31.6698E-03     34.4013E-03
             213             838     31.6698E-03     34.4013E-03
             214             839     36.0733E-03     38.8523E-03
             231             839     36.0733E-03     38.8523E-03
             230             839     36.0733E-03     38.8523E-03
             213             839     36.0733E-03     38.8523E-03
             214             840     40.5910E-03     43.3995E-03
             232             840     40.5910E-03     43.3995E-03
             231             840     40.5910E-03     43.3995E-03
             215             840     40.5910E-03     43.3995E-03
             232             841     45.1860E-03     48.0550E-03
             215             841     45.1860E-03     48.0550E-03
             233             841     45.1860E-03     48.0550E-03
             216             841     45.1860E-03     48.0550E-03
             216             842     49.9708E-03     52.8833E-03
             233             842     49.9708E-03     52.8833E-03
             217             842     49.9708E-03     52.8833E-03
             234             842     49.9708E-03     52.8833E-03
             218             843     55.0580E-03     58.0694E-03
             217             843     55.0580E-03     58.0694E-03
             234             843     55.0580E-03     58.0694E-03
             235             843     55.0580E-03     58.0694E-03
             218             844     61.0660E-03     63.9907E-03
             236             844     61.0660E-03     63.9907E-03
             235             844     61.0660E-03     63.9907E-03
             219             844     61.0660E-03     63.9907E-03
             220             845     69.8905E-03     72.0591E-03
             237             845     69.8905E-03     72.0591E-03
             219             845     69.8905E-03     72.0591E-03
             236             845     69.8905E-03     72.0591E-03
             220             846     80.3819E-03     81.2774E-03
             238             846     80.3819E-03     81.2774E-03
             237             846     80.3819E-03     81.2774E-03
             221             846     80.3819E-03     81.2774E-03
             239             847     12.1415E-03     10.2972E-03
             240             847     12.1415E-03     10.2972E-03
             223             847     12.1415E-03     10.2972E-03
             222             847     12.1415E-03     10.2972E-03
             223             848     10.5887E-03     10.7298E-03
             240             848     10.5887E-03     10.7298E-03
             224             848     10.5887E-03     10.7298E-03
             241             848     10.5887E-03     10.7298E-03
             242             849     11.3305E-03     13.3099E-03
             241             849     11.3305E-03     13.3099E-03
             224             849     11.3305E-03     13.3099E-03
             225             849     11.3305E-03     13.3099E-03
             225             850     14.0169E-03     17.0099E-03
             242             850     14.0169E-03     17.0099E-03
             226             850     14.0169E-03     17.0099E-03
             243             850     14.0169E-03     17.0099E-03
             227             851     17.5030E-03     21.0265E-03
             226             851     17.5030E-03     21.0265E-03
             243             851     17.5030E-03     21.0265E-03
             244             851     17.5030E-03     21.0265E-03
             245             852     21.4441E-03     25.1980E-03
             228             852     21.4441E-03     25.1980E-03
             244             852     21.4441E-03     25.1980E-03
             227             852     21.4441E-03     25.1980E-03
             246             853     25.6250E-03     29.4871E-03
             228             853     25.6250E-03     29.4871E-03
             229             853     25.6250E-03     29.4871E-03
             245             853     25.6250E-03     29.4871E-03
             247             854     29.9350E-03     33.8442E-03
             229             854     29.9350E-03     33.8442E-03
             230             854     29.9350E-03     33.8442E-03
             246             854     29.9350E-03     33.8442E-03
             247             855     34.3353E-03     38.2608E-03
             231             855     34.3353E-03     38.2608E-03
             248             855     34.3353E-03     38.2608E-03
             230             855     34.3353E-03     38.2608E-03
             248             856     38.7786E-03     42.6981E-03
             249             856     38.7786E-03     42.6981E-03
             231             856     38.7786E-03     42.6981E-03
             232             856     38.7786E-03     42.6981E-03
             249             857     43.3254E-03     47.2132E-03
             250             857     43.3254E-03     47.2132E-03
             233             857     43.3254E-03     47.2132E-03
             232             857     43.3254E-03     47.2132E-03
             251             858     47.9900E-03     51.8275E-03
             250             858     47.9900E-03     51.8275E-03
             233             858     47.9900E-03     51.8275E-03
             234             858     47.9900E-03     51.8275E-03
             251             859     53.1924E-03     56.9220E-03
             235             859     53.1924E-03     56.9220E-03
             252             859     53.1924E-03     56.9220E-03
             234             859     53.1924E-03     56.9220E-03
             252             860     59.2442E-03     62.8803E-03
             235             860     59.2442E-03     62.8803E-03
             236             860     59.2442E-03     62.8803E-03
             253             860     59.2442E-03     62.8803E-03
             236             861     68.1936E-03     71.7308E-03
             254             861     68.1936E-03     71.7308E-03
             237             861     68.1936E-03     71.7308E-03
             253             861     68.1936E-03     71.7308E-03
             255             862     83.5565E-03     86.2981E-03
             238             862     83.5565E-03     86.2981E-03
             254             862     83.5565E-03     86.2981E-03
             237             862     83.5565E-03     86.2981E-03
             240             863     15.6937E-03     16.8064E-03
             257             863     15.6937E-03     16.8064E-03
             239             863     15.6937E-03     16.8064E-03
             256             863     15.6937E-03     16.8064E-03
             258             864     16.3477E-03     16.7627E-03
             257             864     16.3477E-03     16.7627E-03
             241             864     16.3477E-03     16.7627E-03
             240             864     16.3477E-03     16.7627E-03
             258             865     18.6485E-03     19.5125E-03
             242             865     18.6485E-03     19.5125E-03
             259             865     18.6485E-03     19.5125E-03
             241             865     18.6485E-03     19.5125E-03
             260             866     22.3517E-03     23.5922E-03
             242             866     22.3517E-03     23.5922E-03
             243             866     22.3517E-03     23.5922E-03
             259             866     22.3517E-03     23.5922E-03
             244             867     26.7023E-03     28.0652E-03
             243             867     26.7023E-03     28.0652E-03
             261             867     26.7023E-03     28.0652E-03
             260             867     26.7023E-03     28.0652E-03
             262             868     31.5350E-03     32.9126E-03
             261             868     31.5350E-03     32.9126E-03
             245             868     31.5350E-03     32.9126E-03
             244             868     31.5350E-03     32.9126E-03
             245             869     36.5578E-03     37.9396E-03
             262             869     36.5578E-03     37.9396E-03
             263             869     36.5578E-03     37.9396E-03
             246             869     36.5578E-03     37.9396E-03
             247             870     41.7458E-03     43.0889E-03
             263             870     41.7458E-03     43.0889E-03
             264             870     41.7458E-03     43.0889E-03
             246             870     41.7458E-03     43.0889E-03
             264             871     46.9805E-03     48.3155E-03
             248             871     46.9805E-03     48.3155E-03
             265             871     46.9805E-03     48.3155E-03
             247             871     46.9805E-03     48.3155E-03
             266             872     52.2440E-03     53.5202E-03
             248             872     52.2440E-03     53.5202E-03
             265             872     52.2440E-03     53.5202E-03
             249             872     52.2440E-03     53.5202E-03
             249             873     57.4804E-03     58.6913E-03
             267             873     57.4804E-03     58.6913E-03
             250             873     57.4804E-03     58.6913E-03
             266             873     57.4804E-03     58.6913E-03
             267             874     62.6980E-03     63.7551E-03
             250             874     62.6980E-03     63.7551E-03
             251             874     62.6980E-03     63.7551E-03
             268             874     62.6980E-03     63.7551E-03
             251             875     67.8030E-03     68.6470E-03
             268             875     67.8030E-03     68.6470E-03
             269             875     67.8030E-03     68.6470E-03
             252             875     67.8030E-03     68.6470E-03
             269             876     73.0055E-03     73.4881E-03
             253             876     73.0055E-03     73.4881E-03
             252             876     73.0055E-03     73.4881E-03
             270             876     73.0055E-03     73.4881E-03
             253             877     78.1476E-03     78.4495E-03
             271             877     78.1476E-03     78.4495E-03
             270             877     78.1476E-03     78.4495E-03
             254             877     78.1476E-03     78.4495E-03
             254             878     84.9383E-03     86.3192E-03
             272             878     84.9383E-03     86.3192E-03
             255             878     84.9383E-03     86.3192E-03
             271             878     84.9383E-03     86.3192E-03
             273             879     19.3325E-03     21.7505E-03
             274             879     19.3325E-03     21.7505E-03
             256             879     19.3325E-03     21.7505E-03
             257             879     19.3325E-03     21.7505E-03
             274             880     21.7374E-03     22.5667E-03
             275             880     21.7374E-03     22.5667E-03
             258             880     21.7374E-03     22.5667E-03
             257             880     21.7374E-03     22.5667E-03
             259             881     25.5120E-03     25.2041E-03
             275             881     25.5120E-03     25.2041E-03
             258             881     25.5120E-03     25.2041E-03
             276             881     25.5120E-03     25.2041E-03
             276             882     30.0994E-03     29.3632E-03
             277             882     30.0994E-03     29.3632E-03
             259             882     30.0994E-03     29.3632E-03
             260             882     30.0994E-03     29.3632E-03
             278             883     35.3742E-03     34.4525E-03
             260             883     35.3742E-03     34.4525E-03
             277             883     35.3742E-03     34.4525E-03
             261             883     35.3742E-03     34.4525E-03
             278             884     41.1301E-03     40.1032E-03
             262             884     41.1301E-03     40.1032E-03
             261             884     41.1301E-03     40.1032E-03
             279             884     41.1301E-03     40.1032E-03
             279             885     47.1843E-03     46.1037E-03
             263             885     47.1843E-03     46.1037E-03
             262             885     47.1843E-03     46.1037E-03
             280             885     47.1843E-03     46.1037E-03
             281             886     53.4522E-03     52.3289E-03
             280             886     53.4522E-03     52.3289E-03
             264             886     53.4522E-03     52.3289E-03
             263             886     53.4522E-03     52.3289E-03
             281             887     59.8133E-03     58.6742E-03
             265             887     59.8133E-03     58.6742E-03
             264             887     59.8133E-03     58.6742E-03
             282             887     59.8133E-03     58.6742E-03
             282             888     66.2522E-03     65.0653E-03
             265             888     66.2522E-03     65.0653E-03
             283             888     66.2522E-03     65.0653E-03
             266             888     66.2522E-03     65.0653E-03
             283             889     72.6382E-03     71.4329E-03
             266             889     72.6382E-03     71.4329E-03
             284             889     72.6382E-03     71.4329E-03
             267             889     72.6382E-03     71.4329E-03
             285             890     78.9509E-03     77.6248E-03
             267             890     78.9509E-03     77.6248E-03
             268             890     78.9509E-03     77.6248E-03
             284             890     78.9509E-03     77.6248E-03
             268             891     84.8552E-03     83.4261E-03
             269             891     84.8552E-03     83.4261E-03
             285             891     84.8552E-03     83.4261E-03
             286             891     84.8552E-03     83.4261E-03
             269             892     89.7660E-03     88.2495E-03
             270             892     89.7660E-03     88.2495E-03
             286             892     89.7660E-03     88.2495E-03
             287             892     89.7660E-03     88.2495E-03
             271             893     92.6945E-03     91.0843E-03
             287             893     92.6945E-03     91.0843E-03
             288             893     92.6945E-03     91.0843E-03
             270             893     92.6945E-03     91.0843E-03
             289             894     91.6433E-03     90.2233E-03
             272             894     91.6433E-03     90.2233E-03
             271             894     91.6433E-03     90.2233E-03
             288             894     91.6433E-03     90.2233E-03
             290             895     18.1811E-03     17.4698E-03
             291             895     18.1811E-03     17.4698E-03
             274             895     18.1811E-03     17.4698E-03
             273             895     18.1811E-03     17.4698E-03
             275             896     18.8843E-03     19.6137E-03
             274             896     18.8843E-03     19.6137E-03
             291             896     18.8843E-03     19.6137E-03
             292             896     18.8843E-03     19.6137E-03
             276             897     22.0215E-03     22.5411E-03
             275             897     22.0215E-03     22.5411E-03
             292             897     22.0215E-03     22.5411E-03
             293             897     22.0215E-03     22.5411E-03
             276             898     26.7798E-03     27.0476E-03
             294             898     26.7798E-03     27.0476E-03
             277             898     26.7798E-03     27.0476E-03
             293             898     26.7798E-03     27.0476E-03
             294             899     32.3243E-03     32.5691E-03
             278             899     32.3243E-03     32.5691E-03
             295             899     32.3243E-03     32.5691E-03
             277             899     32.3243E-03     32.5691E-03
             278             900     38.4240E-03     38.6813E-03
             295             900     38.4240E-03     38.6813E-03
             296             900     38.4240E-03     38.6813E-03
             279             900     38.4240E-03     38.6813E-03
             279             901     44.8749E-03     45.1618E-03
             296             901     44.8749E-03     45.1618E-03
             297             901     44.8749E-03     45.1618E-03
             280             901     44.8749E-03     45.1618E-03
             280             902     51.5470E-03     51.8556E-03
             298             902     51.5470E-03     51.8556E-03
             281             902     51.5470E-03     51.8556E-03
             297             902     51.5470E-03     51.8556E-03
             299             903     58.3891E-03     58.7057E-03
             298             903     58.3891E-03     58.7057E-03
             282             903     58.3891E-03     58.7057E-03
             281             903     58.3891E-03     58.7057E-03
             300             904     65.3429E-03     65.6791E-03
             282             904     65.3429E-03     65.6791E-03
             299             904     65.3429E-03     65.6791E-03
             283             904     65.3429E-03     65.6791E-03
             283             905     72.4299E-03     72.7748E-03
             284             905     72.4299E-03     72.7748E-03
             301             905     72.4299E-03     72.7748E-03
             300             905     72.4299E-03     72.7748E-03
             285             906     79.5373E-03     79.9536E-03
             284             906     79.5373E-03     79.9536E-03
             302             906     79.5373E-03     79.9536E-03
             301             906     79.5373E-03     79.9536E-03
             285             907     86.6996E-03     87.1885E-03
             303             907     86.6996E-03     87.1885E-03
             286             907     86.6996E-03     87.1885E-03
             302             907     86.6996E-03     87.1885E-03
             286             908     93.2906E-03     94.1151E-03
             304             908     93.2906E-03     94.1151E-03
             287             908     93.2906E-03     94.1151E-03
             303             908     93.2906E-03     94.1151E-03
             287             909     97.7615E-03     99.3970E-03
             305             909     97.7615E-03     99.3970E-03
             304             909     97.7615E-03     99.3970E-03
             288             909     97.7615E-03     99.3970E-03
             306             910     100.730E-03     102.094E-03
             288             910     100.730E-03     102.094E-03
             305             910     100.730E-03     102.094E-03
             289             910     100.730E-03     102.094E-03
             307             911     15.6173E-03     13.3630E-03
             308             911     15.6173E-03     13.3630E-03
             290             911     15.6173E-03     13.3630E-03
             291             911     15.6173E-03     13.3630E-03
             291             912     16.3485E-03     16.0869E-03
             309             912     16.3485E-03     16.0869E-03
             292             912     16.3485E-03     16.0869E-03
             308             912     16.3485E-03     16.0869E-03
             309             913     19.1086E-03     20.2005E-03
             292             913     19.1086E-03     20.2005E-03
             293             913     19.1086E-03     20.2005E-03
             310             913     19.1086E-03     20.2005E-03
             294             914     23.7913E-03     25.2435E-03
             311             914     23.7913E-03     25.2435E-03
             310             914     23.7913E-03     25.2435E-03
             293             914     23.7913E-03     25.2435E-03
             311             915     29.5944E-03     31.1987E-03
             294             915     29.5944E-03     31.1987E-03
             312             915     29.5944E-03     31.1987E-03
             295             915     29.5944E-03     31.1987E-03
             296             916     36.0037E-03     37.7142E-03
             295             916     36.0037E-03     37.7142E-03
             313             916     36.0037E-03     37.7142E-03
             312             916     36.0037E-03     37.7142E-03
             297             917     42.7550E-03     44.5308E-03
             313             917     42.7550E-03     44.5308E-03
             314             917     42.7550E-03     44.5308E-03
             296             917     42.7550E-03     44.5308E-03
             297             918     49.7256E-03     51.5434E-03
             315             918     49.7256E-03     51.5434E-03
             298             918     49.7256E-03     51.5434E-03
             314             918     49.7256E-03     51.5434E-03
             316             919     56.8557E-03     58.7016E-03
             315             919     56.8557E-03     58.7016E-03
             298             919     56.8557E-03     58.7016E-03
             299             919     56.8557E-03     58.7016E-03
             317             920     64.1157E-03     65.9930E-03
             316             920     64.1157E-03     65.9930E-03
             300             920     64.1157E-03     65.9930E-03
             299             920     64.1157E-03     65.9930E-03
             300             921     71.4978E-03     73.4286E-03
             301             921     71.4978E-03     73.4286E-03
             318             921     71.4978E-03     73.4286E-03
             317             921     71.4978E-03     73.4286E-03
             319             922     79.0269E-03     81.0891E-03
             301             922     79.0269E-03     81.0891E-03
             318             922     79.0269E-03     81.0891E-03
             302             922     79.0269E-03     81.0891E-03
             302             923     86.6394E-03     88.9508E-03
             303             923     86.6394E-03     88.9508E-03
             319             923     86.6394E-03     88.9508E-03
             320             923     86.6394E-03     88.9508E-03
             321             924     94.7015E-03     97.2166E-03
             303             924     94.7015E-03     97.2166E-03
             304             924     94.7015E-03     97.2166E-03
             320             924     94.7015E-03     97.2166E-03
             304             925     102.397E-03     105.078E-03
             305             925     102.397E-03     105.078E-03
             321             925     102.397E-03     105.078E-03
             322             925     102.397E-03     105.078E-03
             322             926     108.965E-03     111.766E-03
             305             926     108.965E-03     111.766E-03
             323             926     108.965E-03     111.766E-03
             306             926     108.965E-03     111.766E-03
             308             927     13.7943E-03     10.9456E-03
             324             927     13.7943E-03     10.9456E-03
             325             927     13.7943E-03     10.9456E-03
             307             927     13.7943E-03     10.9456E-03
             326             928     13.6321E-03     13.3103E-03
             309             928     13.6321E-03     13.3103E-03
             325             928     13.6321E-03     13.3103E-03
             308             928     13.6321E-03     13.3103E-03
             327             929     16.1296E-03     18.0285E-03
             326             929     16.1296E-03     18.0285E-03
             310             929     16.1296E-03     18.0285E-03
             309             929     16.1296E-03     18.0285E-03
             327             930     20.9331E-03     23.7996E-03
             310             930     20.9331E-03     23.7996E-03
             328             930     20.9331E-03     23.7996E-03
             311             930     20.9331E-03     23.7996E-03
             328             931     27.0843E-03     30.2540E-03
             311             931     27.0843E-03     30.2540E-03
             329             931     27.0843E-03     30.2540E-03
             312             931     27.0843E-03     30.2540E-03
             313             932     33.7590E-03     37.0654E-03
             330             932     33.7590E-03     37.0654E-03
             312             932     33.7590E-03     37.0654E-03
             329             932     33.7590E-03     37.0654E-03
             314             933     40.7182E-03     44.0861E-03
             313             933     40.7182E-03     44.0861E-03
             330             933     40.7182E-03     44.0861E-03
             331             933     40.7182E-03     44.0861E-03
             331             934     47.8477E-03     51.2494E-03
             314             934     47.8477E-03     51.2494E-03
             332             934     47.8477E-03     51.2494E-03
             315             934     47.8477E-03     51.2494E-03
             315             935     55.0799E-03     58.4947E-03
             332             935     55.0799E-03     58.4947E-03
             333             935     55.0799E-03     58.4947E-03
             316             935     55.0799E-03     58.4947E-03
             333             936     62.4045E-03     65.8279E-03
             317             936     62.4045E-03     65.8279E-03
             316             936     62.4045E-03     65.8279E-03
             334             936     62.4045E-03     65.8279E-03
             318             937     69.7811E-03     73.2478E-03
             335             937     69.7811E-03     73.2478E-03
             317             937     69.7811E-03     73.2478E-03
             334             937     69.7811E-03     73.2478E-03
             335             938     77.2949E-03     80.8206E-03
             319             938     77.2949E-03     80.8206E-03
             318             938     77.2949E-03     80.8206E-03
             336             938     77.2949E-03     80.8206E-03
             320             939     85.0074E-03     88.7255E-03
             337             939     85.0074E-03     88.7255E-03
             319             939     85.0074E-03     88.7255E-03
             336             939     85.0074E-03     88.7255E-03
             337             940     93.3331E-03     97.1914E-03
             321             940     93.3331E-03     97.1914E-03
             338             940     93.3331E-03     97.1914E-03
             320             940     93.3331E-03     97.1914E-03
             338             941     104.422E-03     107.636E-03
             321             941     104.422E-03     107.636E-03
             339             941     104.422E-03     107.636E-03
             322             941     104.422E-03     107.636E-03
             339             942     116.632E-03     118.125E-03
             323             942     116.632E-03     118.125E-03
             322             942     116.632E-03     118.125E-03
             340             942     116.632E-03     118.125E-03
             342             943     12.7462E-03     9.98739E-03
             324             943     12.7462E-03     9.98739E-03
             341             943     12.7462E-03     9.98739E-03
             325             943     12.7462E-03     9.98739E-03
             343             944     10.2563E-03     10.9915E-03
             326             944     10.2563E-03     10.9915E-03
             325             944     10.2563E-03     10.9915E-03
             342             944     10.2563E-03     10.9915E-03
             327             945     12.6352E-03     16.2364E-03
             343             945     12.6352E-03     16.2364E-03
             344             945     12.6352E-03     16.2364E-03
             326             945     12.6352E-03     16.2364E-03
             345             946     18.2381E-03     22.8655E-03
             344             946     18.2381E-03     22.8655E-03
             328             946     18.2381E-03     22.8655E-03
             327             946     18.2381E-03     22.8655E-03
             346             947     24.7776E-03     29.7174E-03
             345             947     24.7776E-03     29.7174E-03
             328             947     24.7776E-03     29.7174E-03
             329             947     24.7776E-03     29.7174E-03
             329             948     31.6884E-03     36.7062E-03
             330             948     31.6884E-03     36.7062E-03
             347             948     31.6884E-03     36.7062E-03
             346             948     31.6884E-03     36.7062E-03
             331             949     38.7620E-03     43.8071E-03
             330             949     38.7620E-03     43.8071E-03
             347             949     38.7620E-03     43.8071E-03
             348             949     38.7620E-03     43.8071E-03
             348             950     45.9115E-03     50.9439E-03
             349             950     45.9115E-03     50.9439E-03
             331             950     45.9115E-03     50.9439E-03
             332             950     45.9115E-03     50.9439E-03
             333             951     53.0969E-03     58.1219E-03
             332             951     53.0969E-03     58.1219E-03
             349             951     53.0969E-03     58.1219E-03
             350             951     53.0969E-03     58.1219E-03
             350             952     60.2777E-03     65.2761E-03
             333             952     60.2777E-03     65.2761E-03
             334             952     60.2777E-03     65.2761E-03
             351             952     60.2777E-03     65.2761E-03
             352             953     67.4918E-03     72.4472E-03
             335             953     67.4918E-03     72.4472E-03
             334             953     67.4918E-03     72.4472E-03
             351             953     67.4918E-03     72.4472E-03
             353             954     74.7169E-03     79.6113E-03
             336             954     74.7169E-03     79.6113E-03
             335             954     74.7169E-03     79.6113E-03
             352             954     74.7169E-03     79.6113E-03
             337             955     82.3020E-03     87.0611E-03
             353             955     82.3020E-03     87.0611E-03
             354             955     82.3020E-03     87.0611E-03
             336             955     82.3020E-03     87.0611E-03
             354             956     90.4983E-03     95.1318E-03
             338             956     90.4983E-03     95.1318E-03
             355             956     90.4983E-03     95.1318E-03
             337             956     90.4983E-03     95.1318E-03
             338             957     101.481E-03     105.888E-03
             356             957     101.481E-03     105.888E-03
             339             957     101.481E-03     105.888E-03
             355             957     101.481E-03     105.888E-03
             339             958     119.000E-03     122.261E-03
             357             958     119.000E-03     122.261E-03
             356             958     119.000E-03     122.261E-03
             340             958     119.000E-03     122.261E-03
             341             959     18.1971E-03     20.1958E-03
             359             959     18.1971E-03     20.1958E-03
             342             959     18.1971E-03     20.1958E-03
             358             959     18.1971E-03     20.1958E-03
             343             960     18.9382E-03     20.0727E-03
             342             960     18.9382E-03     20.0727E-03
             359             960     18.9382E-03     20.0727E-03
             360             960     18.9382E-03     20.0727E-03
             360             961     22.8875E-03     25.0482E-03
             361             961     22.8875E-03     25.0482E-03
             343             961     22.8875E-03     25.0482E-03
             344             961     22.8875E-03     25.0482E-03
             362             962     29.0346E-03     31.5123E-03
             345             962     29.0346E-03     31.5123E-03
             361             962     29.0346E-03     31.5123E-03
             344             962     29.0346E-03     31.5123E-03
             346             963     35.9743E-03     38.5079E-03
             363             963     35.9743E-03     38.5079E-03
             362             963     35.9743E-03     38.5079E-03
             345             963     35.9743E-03     38.5079E-03
             346             964     43.3305E-03     45.8517E-03
             347             964     43.3305E-03     45.8517E-03
             363             964     43.3305E-03     45.8517E-03
             364             964     43.3305E-03     45.8517E-03
             365             965     50.9294E-03     53.4120E-03
             347             965     50.9294E-03     53.4120E-03
             364             965     50.9294E-03     53.4120E-03
             348             965     50.9294E-03     53.4120E-03
             366             966     58.6438E-03     61.0790E-03
             348             966     58.6438E-03     61.0790E-03
             365             966     58.6438E-03     61.0790E-03
             349             966     58.6438E-03     61.0790E-03
             349             967     66.3674E-03     68.7753E-03
             367             967     66.3674E-03     68.7753E-03
             366             967     66.3674E-03     68.7753E-03
             350             967     66.3674E-03     68.7753E-03
             368             968     74.0805E-03     76.3924E-03
             350             968     74.0805E-03     76.3924E-03
             351             968     74.0805E-03     76.3924E-03
             367             968     74.0805E-03     76.3924E-03
             369             969     81.6456E-03     83.8722E-03
             368             969     81.6456E-03     83.8722E-03
             352             969     81.6456E-03     83.8722E-03
             351             969     81.6456E-03     83.8722E-03
             352             970     89.0959E-03     91.0349E-03
             369             970     89.0959E-03     91.0349E-03
             353             970     89.0959E-03     91.0349E-03
             370             970     89.0959E-03     91.0349E-03
             370             971     96.2870E-03     97.8890E-03
             371             971     96.2870E-03     97.8890E-03
             354             971     96.2870E-03     97.8890E-03
             353             971     96.2870E-03     97.8890E-03
             371             972     103.443E-03     104.454E-03
             372             972     103.443E-03     104.454E-03
             355             972     103.443E-03     104.454E-03
             354             972     103.443E-03     104.454E-03
             373             973     110.537E-03     111.069E-03
             372             973     110.537E-03     111.069E-03
             356             973     110.537E-03     111.069E-03
             355             973     110.537E-03     111.069E-03
             356             974     119.683E-03     121.565E-03
             374             974     119.683E-03     121.565E-03
             373             974     119.683E-03     121.565E-03
             357             974     119.683E-03     121.565E-03
             359             975     24.4669E-03     28.2356E-03
             358             975     24.4669E-03     28.2356E-03
             376             975     24.4669E-03     28.2356E-03
             375             975     24.4669E-03     28.2356E-03
             360             976     27.1537E-03     28.8209E-03
             376             976     27.1537E-03     28.8209E-03
             359             976     27.1537E-03     28.8209E-03
             377             976     27.1537E-03     28.8209E-03
             377             977     32.4074E-03     32.6199E-03
             361             977     32.4074E-03     32.6199E-03
             378             977     32.4074E-03     32.6199E-03
             360             977     32.4074E-03     32.6199E-03
             378             978     38.9109E-03     38.6939E-03
             361             978     38.9109E-03     38.6939E-03
             379             978     38.9109E-03     38.6939E-03
             362             978     38.9109E-03     38.6939E-03
             379             979     46.3369E-03     45.9998E-03
             363             979     46.3369E-03     45.9998E-03
             380             979     46.3369E-03     45.9998E-03
             362             979     46.3369E-03     45.9998E-03
             380             980     54.4014E-03     54.0079E-03
             381             980     54.4014E-03     54.0079E-03
             363             980     54.4014E-03     54.0079E-03
             364             980     54.4014E-03     54.0079E-03
             364             981     62.8484E-03     62.4305E-03
             382             981     62.8484E-03     62.4305E-03
             365             981     62.8484E-03     62.4305E-03
             381             981     62.8484E-03     62.4305E-03
             366             982     71.5046E-03     71.0748E-03
             365             982     71.5046E-03     71.0748E-03
             383             982     71.5046E-03     71.0748E-03
             382             982     71.5046E-03     71.0748E-03
             366             983     80.2985E-03     79.8212E-03
             384             983     80.2985E-03     79.8212E-03
             367             983     80.2985E-03     79.8212E-03
             383             983     80.2985E-03     79.8212E-03
             385             984     89.0777E-03     88.5693E-03
             384             984     89.0777E-03     88.5693E-03
             367             984     89.0777E-03     88.5693E-03
             368             984     89.0777E-03     88.5693E-03
             386             985     97.8132E-03     97.1678E-03
             368             985     97.8132E-03     97.1678E-03
             385             985     97.8132E-03     97.1678E-03
             369             985     97.8132E-03     97.1678E-03
             387             986     106.265E-03     105.484E-03
             370             986     106.265E-03     105.484E-03
             369             986     106.265E-03     105.484E-03
             386             986     106.265E-03     105.484E-03
             370             987     114.162E-03     113.154E-03
             371             987     114.162E-03     113.154E-03
             387             987     114.162E-03     113.154E-03
             388             987     114.162E-03     113.154E-03
             389             988     121.053E-03     119.747E-03
             371             988     121.053E-03     119.747E-03
             372             988     121.053E-03     119.747E-03
             388             988     121.053E-03     119.747E-03
             372             989     125.836E-03     124.661E-03
             373             989     125.836E-03     124.661E-03
             390             989     125.836E-03     124.661E-03
             389             989     125.836E-03     124.661E-03
             374             990     127.642E-03     126.138E-03
             373             990     127.642E-03     126.138E-03
             391             990     127.642E-03     126.138E-03
             390             990     127.642E-03     126.138E-03
             392             991     22.8014E-03     22.5598E-03
             376             991     22.8014E-03     22.5598E-03
             393             991     22.8014E-03     22.5598E-03
             375             991     22.8014E-03     22.5598E-03
             376             992     23.1944E-03     24.8287E-03
             377             992     23.1944E-03     24.8287E-03
             393             992     23.1944E-03     24.8287E-03
             394             992     23.1944E-03     24.8287E-03
             378             993     27.7919E-03     28.9897E-03
             394             993     27.7919E-03     28.9897E-03
             377             993     27.7919E-03     28.9897E-03
             395             993     27.7919E-03     28.9897E-03
             395             994     34.7715E-03     35.5284E-03
             396             994     34.7715E-03     35.5284E-03
             378             994     34.7715E-03     35.5284E-03
             379             994     34.7715E-03     35.5284E-03
             380             995     42.8391E-03     43.4843E-03
             397             995     42.8391E-03     43.4843E-03
             396             995     42.8391E-03     43.4843E-03
             379             995     42.8391E-03     43.4843E-03
             398             996     51.5531E-03     52.1882E-03
             397             996     51.5531E-03     52.1882E-03
             380             996     51.5531E-03     52.1882E-03
             381             996     51.5531E-03     52.1882E-03
             399             997     60.6256E-03     61.3034E-03
             382             997     60.6256E-03     61.3034E-03
             398             997     60.6256E-03     61.3034E-03
             381             997     60.6256E-03     61.3034E-03
             383             998     69.9770E-03     70.6732E-03
             400             998     69.9770E-03     70.6732E-03
             382             998     69.9770E-03     70.6732E-03
             399             998     69.9770E-03     70.6732E-03
             384             999     79.4757E-03     80.2094E-03
             383             999     79.4757E-03     80.2094E-03
             401             999     79.4757E-03     80.2094E-03
             400             999     79.4757E-03     80.2094E-03
             384            1000     89.1344E-03     89.8697E-03
             385            1000     89.1344E-03     89.8697E-03
             402            1000     89.1344E-03     89.8697E-03
             401            1000     89.1344E-03     89.8697E-03
             386            1001     98.8198E-03     99.6186E-03
             403            1001     98.8198E-03     99.6186E-03
             385            1001     98.8198E-03     99.6186E-03
             402            1001     98.8198E-03     99.6186E-03
             386            1002     108.547E-03     109.383E-03
             387            1002     108.547E-03     109.383E-03
             404            1002     108.547E-03     109.383E-03
             403            1002     108.547E-03     109.383E-03
             388            1003     117.946E-03     119.001E-03
             404            1003     117.946E-03     119.001E-03
             405            1003     117.946E-03     119.001E-03
             387            1003     117.946E-03     119.001E-03
             389            1004     126.391E-03     127.936E-03
             405            1004     126.391E-03     127.936E-03
             388            1004     126.391E-03     127.936E-03
             406            1004     126.391E-03     127.936E-03
             407            1005     133.075E-03     135.058E-03
             389            1005     133.075E-03     135.058E-03
             390            1005     133.075E-03     135.058E-03
             406            1005     133.075E-03     135.058E-03
             391            1006     137.846E-03     139.833E-03
             408            1006     137.846E-03     139.833E-03
             407            1006     137.846E-03     139.833E-03
             390            1006     137.846E-03     139.833E-03
             410            1007     19.2312E-03     16.8857E-03
             392            1007     19.2312E-03     16.8857E-03
             393            1007     19.2312E-03     16.8857E-03
             409            1007     19.2312E-03     16.8857E-03
             411            1008     19.7476E-03     20.0500E-03
             410            1008     19.7476E-03     20.0500E-03
             393            1008     19.7476E-03     20.0500E-03
             394            1008     19.7476E-03     20.0500E-03
             411            1009     23.9659E-03     25.6656E-03
             395            1009     23.9659E-03     25.6656E-03
             394            1009     23.9659E-03     25.6656E-03
             412            1009     23.9659E-03     25.6656E-03
             413            1010     31.2917E-03     33.0394E-03
             412            1010     31.2917E-03     33.0394E-03
             395            1010     31.2917E-03     33.0394E-03
             396            1010     31.2917E-03     33.0394E-03
             396            1011     39.9068E-03     41.6687E-03
             397            1011     39.9068E-03     41.6687E-03
             414            1011     39.9068E-03     41.6687E-03
             413            1011     39.9068E-03     41.6687E-03
             398            1012     49.1042E-03     50.9178E-03
             397            1012     49.1042E-03     50.9178E-03
             414            1012     49.1042E-03     50.9178E-03
             415            1012     49.1042E-03     50.9178E-03
             415            1013     58.6903E-03     60.5482E-03
             398            1013     58.6903E-03     60.5482E-03
             399            1013     58.6903E-03     60.5482E-03
             416            1013     58.6903E-03     60.5482E-03
             416            1014     68.4869E-03     70.4053E-03
             399            1014     68.4869E-03     70.4053E-03
             400            1014     68.4869E-03     70.4053E-03
             417            1014     68.4869E-03     70.4053E-03
             418            1015     78.4828E-03     80.4531E-03
             400            1015     78.4828E-03     80.4531E-03
             417            1015     78.4828E-03     80.4531E-03
             401            1015     78.4828E-03     80.4531E-03
             401            1016     88.6162E-03     90.6705E-03
             402            1016     88.6162E-03     90.6705E-03
             419            1016     88.6162E-03     90.6705E-03
             418            1016     88.6162E-03     90.6705E-03
             403            1017     98.9250E-03     101.107E-03
             402            1017     98.9250E-03     101.107E-03
             420            1017     98.9250E-03     101.107E-03
             419            1017     98.9250E-03     101.107E-03
             421            1018     109.299E-03     111.733E-03
             404            1018     109.299E-03     111.733E-03
             420            1018     109.299E-03     111.733E-03
             403            1018     109.299E-03     111.733E-03
             405            1019     119.866E-03     122.610E-03
             421            1019     119.866E-03     122.610E-03
             404            1019     119.866E-03     122.610E-03
             422            1019     119.866E-03     122.610E-03
             405            1020     130.067E-03     133.308E-03
             423            1020     130.067E-03     133.308E-03
             422            1020     130.067E-03     133.308E-03
             406            1020     130.067E-03     133.308E-03
             423            1021     138.984E-03     142.685E-03
             406            1021     138.984E-03     142.685E-03
             407            1021     138.984E-03     142.685E-03
             424            1021     138.984E-03     142.685E-03
             408            1022     147.130E-03     149.802E-03
             424            1022     147.130E-03     149.802E-03
             425            1022     147.130E-03     149.802E-03
             407            1022     147.130E-03     149.802E-03
             410            1023     15.8878E-03     12.7832E-03
             409            1023     15.8878E-03     12.7832E-03
             426            1023     15.8878E-03     12.7832E-03
             427            1023     15.8878E-03     12.7832E-03
             427            1024     15.8515E-03     15.5902E-03
             410            1024     15.8515E-03     15.5902E-03
             428            1024     15.8515E-03     15.5902E-03
             411            1024     15.8515E-03     15.5902E-03
             428            1025     20.6364E-03     22.5910E-03
             412            1025     20.6364E-03     22.5910E-03
             429            1025     20.6364E-03     22.5910E-03
             411            1025     20.6364E-03     22.5910E-03
             412            1026     28.3046E-03     31.1084E-03
             413            1026     28.3046E-03     31.1084E-03
             430            1026     28.3046E-03     31.1084E-03
             429            1026     28.3046E-03     31.1084E-03
             431            1027     37.3248E-03     40.3202E-03
             414            1027     37.3248E-03     40.3202E-03
             413            1027     37.3248E-03     40.3202E-03
             430            1027     37.3248E-03     40.3202E-03
             415            1028     46.9316E-03     50.0042E-03
             431            1028     46.9316E-03     50.0042E-03
             432            1028     46.9316E-03     50.0042E-03
             414            1028     46.9316E-03     50.0042E-03
             432            1029     56.7918E-03     59.9229E-03
             416            1029     56.7918E-03     59.9229E-03
             433            1029     56.7918E-03     59.9229E-03
             415            1029     56.7918E-03     59.9229E-03
             416            1030     66.8384E-03     70.0180E-03
             433            1030     66.8384E-03     70.0180E-03
             417            1030     66.8384E-03     70.0180E-03
             434            1030     66.8384E-03     70.0180E-03
             434            1031     77.0232E-03     80.2477E-03
             417            1031     77.0232E-03     80.2477E-03
             418            1031     77.0232E-03     80.2477E-03
             435            1031     77.0232E-03     80.2477E-03
             435            1032     87.3271E-03     90.6445E-03
             418            1032     87.3271E-03     90.6445E-03
             436            1032     87.3271E-03     90.6445E-03
             419            1032     87.3271E-03     90.6445E-03
             437            1033     97.7797E-03     101.220E-03
             419            1033     97.7797E-03     101.220E-03
             420            1033     97.7797E-03     101.220E-03
             436            1033     97.7797E-03     101.220E-03
             438            1034     108.446E-03     112.147E-03
             420            1034     108.446E-03     112.147E-03
             437            1034     108.446E-03     112.147E-03
             421            1034     108.446E-03     112.147E-03
             438            1035     119.377E-03     123.406E-03
             422            1035     119.377E-03     123.406E-03
             421            1035     119.377E-03     123.406E-03
             439            1035     119.377E-03     123.406E-03
             423            1036     131.342E-03     135.420E-03
             439            1036     131.342E-03     135.420E-03
             440            1036     131.342E-03     135.420E-03
             422            1036     131.342E-03     135.420E-03
             423            1037     143.709E-03     147.544E-03
             441            1037     143.709E-03     147.544E-03
             424            1037     143.709E-03     147.544E-03
             440            1037     143.709E-03     147.544E-03
             424            1038     154.772E-03     158.237E-03
             442            1038     154.772E-03     158.237E-03
             441            1038     154.772E-03     158.237E-03
             425            1038     154.772E-03     158.237E-03
             443            1039     14.1343E-03     9.77050E-03
             427            1039     14.1343E-03     9.77050E-03
             426            1039     14.1343E-03     9.77050E-03
             444            1039     14.1343E-03     9.77050E-03
             428            1040     12.6343E-03     12.2111E-03
             427            1040     12.6343E-03     12.2111E-03
             444            1040     12.6343E-03     12.2111E-03
             445            1040     12.6343E-03     12.2111E-03
             446            1041     17.3051E-03     20.2526E-03
             429            1041     17.3051E-03     20.2526E-03
             428            1041     17.3051E-03     20.2526E-03
             445            1041     17.3051E-03     20.2526E-03
             430            1042     25.6188E-03     29.6842E-03
             447            1042     25.6188E-03     29.6842E-03
             429            1042     25.6188E-03     29.6842E-03
             446            1042     25.6188E-03     29.6842E-03
             447            1043     35.0991E-03     39.4325E-03
             431            1043     35.0991E-03     39.4325E-03
             430            1043     35.0991E-03     39.4325E-03
             448            1043     35.0991E-03     39.4325E-03
             448            1044     44.9150E-03     49.3427E-03
             449            1044     44.9150E-03     49.3427E-03
             431            1044     44.9150E-03     49.3427E-03
             432            1044     44.9150E-03     49.3427E-03
             450            1045     54.8876E-03     59.3545E-03
             433            1045     54.8876E-03     59.3545E-03
             432            1045     54.8876E-03     59.3545E-03
             449            1045     54.8876E-03     59.3545E-03
             451            1046     64.9662E-03     69.4386E-03
             434            1046     64.9662E-03     69.4386E-03
             450            1046     64.9662E-03     69.4386E-03
             433            1046     64.9662E-03     69.4386E-03
             452            1047     75.0897E-03     79.5813E-03
             434            1047     75.0897E-03     79.5813E-03
             451            1047     75.0897E-03     79.5813E-03
             435            1047     75.0897E-03     79.5813E-03
             435            1048     85.3033E-03     89.7921E-03
             452            1048     85.3033E-03     89.7921E-03
             453            1048     85.3033E-03     89.7921E-03
             436            1048     85.3033E-03     89.7921E-03
             436            1049     95.5684E-03     100.134E-03
             453            1049     95.5684E-03     100.134E-03
             454            1049     95.5684E-03     100.134E-03
             437            1049     95.5684E-03     100.134E-03
             437            1050     106.088E-03     110.706E-03
             454            1050     106.088E-03     110.706E-03
             455            1050     106.088E-03     110.706E-03
             438            1050     106.088E-03     110.706E-03
             455            1051     117.045E-03     121.836E-03
             456            1051     117.045E-03     121.836E-03
             439            1051     117.045E-03     121.836E-03
             438            1051     117.045E-03     121.836E-03
             440            1052     129.134E-03     133.954E-03
             456            1052     129.134E-03     133.954E-03
             457            1052     129.134E-03     133.954E-03
             439            1052     129.134E-03     133.954E-03
             458            1053     144.894E-03     148.728E-03
             440            1053     144.894E-03     148.728E-03
             441            1053     144.894E-03     148.728E-03
             457            1053     144.894E-03     148.728E-03
             442            1054     161.875E-03     163.894E-03
             458            1054     161.875E-03     163.894E-03
             459            1054     161.875E-03     163.894E-03
             441            1054     161.875E-03     163.894E-03
             461            1055     12.7180E-03     9.20558E-03
             444            1055     12.7180E-03     9.20558E-03
             443            1055     12.7180E-03     9.20558E-03
             460            1055     12.7180E-03     9.20558E-03
             445            1056     8.72269E-03     9.63414E-03
             462            1056     8.72269E-03     9.63414E-03
             461            1056     8.72269E-03     9.63414E-03
             444            1056     8.72269E-03     9.63414E-03
             462            1057     14.1333E-03     19.0048E-03
             445            1057     14.1333E-03     19.0048E-03
             463            1057     14.1333E-03     19.0048E-03
             446            1057     14.1333E-03     19.0048E-03
             463            1058     23.5062E-03     29.0631E-03
             464            1058     23.5062E-03     29.0631E-03
             446            1058     23.5062E-03     29.0631E-03
             447            1058     23.5062E-03     29.0631E-03
             465            1059     33.2824E-03     39.0930E-03
             447            1059     33.2824E-03     39.0930E-03
             464            1059     33.2824E-03     39.0930E-03
             448            1059     33.2824E-03     39.0930E-03
             466            1060     43.1441E-03     49.0052E-03
             449            1060     43.1441E-03     49.0052E-03
             465            1060     43.1441E-03     49.0052E-03
             448            1060     43.1441E-03     49.0052E-03
             467            1061     53.0722E-03     58.9162E-03
             466            1061     53.0722E-03     58.9162E-03
             449            1061     53.0722E-03     58.9162E-03
             450            1061     53.0722E-03     58.9162E-03
             468            1062     62.9717E-03     68.7847E-03
             451            1062     62.9717E-03     68.7847E-03
             467            1062     62.9717E-03     68.7847E-03
             450            1062     62.9717E-03     68.7847E-03
             452            1063     72.8841E-03     78.6375E-03
             469            1063     72.8841E-03     78.6375E-03
             451            1063     72.8841E-03     78.6375E-03
             468            1063     72.8841E-03     78.6375E-03
             469            1064     82.7526E-03     88.4404E-03
             453            1064     82.7526E-03     88.4404E-03
             470            1064     82.7526E-03     88.4404E-03
             452            1064     82.7526E-03     88.4404E-03
             471            1065     92.7069E-03     98.2663E-03
             454            1065     92.7069E-03     98.2663E-03
             453            1065     92.7069E-03     98.2663E-03
             470            1065     92.7069E-03     98.2663E-03
             455            1066     102.754E-03     108.157E-03
             472            1066     102.754E-03     108.157E-03
             471            1066     102.754E-03     108.157E-03
             454            1066     102.754E-03     108.157E-03
             473            1067     113.423E-03     118.570E-03
             456            1067     113.423E-03     118.570E-03
             455            1067     113.423E-03     118.570E-03
             472            1067     113.423E-03     118.570E-03
             474            1068     125.057E-03     129.942E-03
             457            1068     125.057E-03     129.942E-03
             473            1068     125.057E-03     129.942E-03
             456            1068     125.057E-03     129.942E-03
             457            1069     140.110E-03     144.868E-03
             458            1069     140.110E-03     144.868E-03
             475            1069     140.110E-03     144.868E-03
             474            1069     140.110E-03     144.868E-03
             475            1070     162.892E-03     166.319E-03
             476            1070     162.892E-03     166.319E-03
             459            1070     162.892E-03     166.319E-03
             458            1070     162.892E-03     166.319E-03
             478            1071     18.2324E-03     20.9225E-03
             477            1071     18.2324E-03     20.9225E-03
             460            1071     18.2324E-03     20.9225E-03
             461            1071     18.2324E-03     20.9225E-03
             478            1072     18.8640E-03     20.3916E-03
             479            1072     18.8640E-03     20.3916E-03
             462            1072     18.8640E-03     20.3916E-03
             461            1072     18.8640E-03     20.3916E-03
             462            1073     25.7171E-03     28.4818E-03
             479            1073     25.7171E-03     28.4818E-03
             463            1073     25.7171E-03     28.4818E-03
             480            1073     25.7171E-03     28.4818E-03
             481            1074     35.0844E-03     37.9931E-03
             463            1074     35.0844E-03     37.9931E-03
             480            1074     35.0844E-03     37.9931E-03
             464            1074     35.0844E-03     37.9931E-03
             464            1075     44.9643E-03     47.9125E-03
             482            1075     44.9643E-03     47.9125E-03
             465            1075     44.9643E-03     47.9125E-03
             481            1075     44.9643E-03     47.9125E-03
             465            1076     55.2632E-03     58.1683E-03
             483            1076     55.2632E-03     58.1683E-03
             482            1076     55.2632E-03     58.1683E-03
             466            1076     55.2632E-03     58.1683E-03
             467            1077     65.6991E-03     68.5892E-03
             483            1077     65.6991E-03     68.5892E-03
             484            1077     65.6991E-03     68.5892E-03
             466            1077     65.6991E-03     68.5892E-03
             468            1078     76.2532E-03     79.0748E-03
             484            1078     76.2532E-03     79.0748E-03
             467            1078     76.2532E-03     79.0748E-03
             485            1078     76.2532E-03     79.0748E-03
             468            1079     86.7774E-03     89.5899E-03
             486            1079     86.7774E-03     89.5899E-03
             485            1079     86.7774E-03     89.5899E-03
             469            1079     86.7774E-03     89.5899E-03
             486            1080     97.2910E-03     99.9947E-03
             470            1080     97.2910E-03     99.9947E-03
             487            1080     97.2910E-03     99.9947E-03
             469            1080     97.2910E-03     99.9947E-03
             471            1081     107.686E-03     110.281E-03
             488            1081     107.686E-03     110.281E-03
             487            1081     107.686E-03     110.281E-03
             470            1081     107.686E-03     110.281E-03
             472            1082     118.069E-03     120.343E-03
             488            1082     118.069E-03     120.343E-03
             471            1082     118.069E-03     120.343E-03
             489            1082     118.069E-03     120.343E-03
             473            1083     128.230E-03     130.101E-03
             489            1083     128.230E-03     130.101E-03
             472            1083     128.230E-03     130.101E-03
             490            1083     128.230E-03     130.101E-03
             473            1084     138.638E-03     139.797E-03
             474            1084     138.638E-03     139.797E-03
             491            1084     138.638E-03     139.797E-03
             490            1084     138.638E-03     139.797E-03
             474            1085     148.930E-03     149.674E-03
             475            1085     148.930E-03     149.674E-03
             491            1085     148.930E-03     149.674E-03
             492            1085     148.930E-03     149.674E-03
             476            1086     162.086E-03     164.751E-03
             493            1086     162.086E-03     164.751E-03
             492            1086     162.086E-03     164.751E-03
             475            1086     162.086E-03     164.751E-03
             495            1087     25.3903E-03     29.0952E-03
             478            1087     25.3903E-03     29.0952E-03
             494            1087     25.3903E-03     29.0952E-03
             477            1087     25.3903E-03     29.0952E-03
             478            1088     28.3707E-03     29.9724E-03
             496            1088     28.3707E-03     29.9724E-03
             495            1088     28.3707E-03     29.9724E-03
             479            1088     28.3707E-03     29.9724E-03
             497            1089     35.5749E-03     35.9191E-03
             496            1089     35.5749E-03     35.9191E-03
             480            1089     35.5749E-03     35.9191E-03
             479            1089     35.5749E-03     35.9191E-03
             480            1090     44.7368E-03     44.7660E-03
             497            1090     44.7368E-03     44.7660E-03
             498            1090     44.7368E-03     44.7660E-03
             481            1090     44.7368E-03     44.7660E-03
             481            1091     55.1309E-03     55.0976E-03
             482            1091     55.1309E-03     55.0976E-03
             499            1091     55.1309E-03     55.0976E-03
             498            1091     55.1309E-03     55.0976E-03
             500            1092     66.2058E-03     66.1632E-03
             482            1092     66.2058E-03     66.1632E-03
             499            1092     66.2058E-03     66.1632E-03
             483            1092     66.2058E-03     66.1632E-03
             500            1093     77.6535E-03     77.6278E-03
             484            1093     77.6535E-03     77.6278E-03
             483            1093     77.6535E-03     77.6278E-03
             501            1093     77.6535E-03     77.6278E-03
             485            1094     89.3418E-03     89.3180E-03
             502            1094     89.3418E-03     89.3180E-03
             484            1094     89.3418E-03     89.3180E-03
             501            1094     89.3418E-03     89.3180E-03
             502            1095     101.107E-03     101.111E-03
             486            1095     101.107E-03     101.111E-03
             503            1095     101.107E-03     101.111E-03
             485            1095     101.107E-03     101.111E-03
             486            1096     112.935E-03     112.906E-03
             504            1096     112.935E-03     112.906E-03
             503            1096     112.935E-03     112.906E-03
             487            1096     112.935E-03     112.906E-03
             504            1097     124.674E-03     124.639E-03
             488            1097     124.674E-03     124.639E-03
             505            1097     124.674E-03     124.639E-03
             487            1097     124.674E-03     124.639E-03
             505            1098     136.311E-03     136.122E-03
             506            1098     136.311E-03     136.122E-03
             489            1098     136.311E-03     136.122E-03
             488            1098     136.311E-03     136.122E-03
             507            1099     147.546E-03     147.185E-03
             506            1099     147.546E-03     147.185E-03
             490            1099     147.546E-03     147.185E-03
             489            1099     147.546E-03     147.185E-03
             507            1100     157.689E-03     157.205E-03
             508            1100     157.689E-03     157.205E-03
             491            1100     157.689E-03     157.205E-03
             490            1100     157.689E-03     157.205E-03
             491            1101     166.103E-03     165.459E-03
             492            1101     166.103E-03     165.459E-03
             508            1101     166.103E-03     165.459E-03
             509            1101     166.103E-03     165.459E-03
             493            1102     171.171E-03     170.351E-03
             492            1102     171.171E-03     170.351E-03
             510            1102     171.171E-03     170.351E-03
             509            1102     171.171E-03     170.351E-03
             494            1103     23.4613E-03     22.1317E-03
             495            1103     23.4613E-03     22.1317E-03
             511            1103     23.4613E-03     22.1317E-03
             512            1103     23.4613E-03     22.1317E-03
             513            1104     23.4078E-03     24.9821E-03
             512            1104     23.4078E-03     24.9821E-03
             495            1104     23.4078E-03     24.9821E-03
             496            1104     23.4078E-03     24.9821E-03
             514            1105     29.8176E-03     31.4254E-03
             497            1105     29.8176E-03     31.4254E-03
             496            1105     29.8176E-03     31.4254E-03
             513            1105     29.8176E-03     31.4254E-03
             497            1106     39.7553E-03     41.1271E-03
             498            1106     39.7553E-03     41.1271E-03
             514            1106     39.7553E-03     41.1271E-03
             515            1106     39.7553E-03     41.1271E-03
             516            1107     50.8886E-03     52.3025E-03
             499            1107     50.8886E-03     52.3025E-03
             498            1107     50.8886E-03     52.3025E-03
             515            1107     50.8886E-03     52.3025E-03
             517            1108     62.6610E-03     64.1500E-03
             516            1108     62.6610E-03     64.1500E-03
             500            1108     62.6610E-03     64.1500E-03
             499            1108     62.6610E-03     64.1500E-03
             500            1109     74.7973E-03     76.3548E-03
             518            1109     74.7973E-03     76.3548E-03
             501            1109     74.7973E-03     76.3548E-03
             517            1109     74.7973E-03     76.3548E-03
             519            1110     87.1473E-03     88.7564E-03
             501            1110     87.1473E-03     88.7564E-03
             518            1110     87.1473E-03     88.7564E-03
             502            1110     87.1473E-03     88.7564E-03
             520            1111     99.6655E-03     101.297E-03
             503            1111     99.6655E-03     101.297E-03
             502            1111     99.6655E-03     101.297E-03
             519            1111     99.6655E-03     101.297E-03
             503            1112     112.292E-03     113.964E-03
             520            1112     112.292E-03     113.964E-03
             504            1112     112.292E-03     113.964E-03
             521            1112     112.292E-03     113.964E-03
             522            1113     125.072E-03     126.777E-03
             504            1113     125.072E-03     126.777E-03
             521            1113     125.072E-03     126.777E-03
             505            1113     125.072E-03     126.777E-03
             522            1114     137.885E-03     139.728E-03
             505            1114     137.885E-03     139.728E-03
             506            1114     137.885E-03     139.728E-03
             523            1114     137.885E-03     139.728E-03
             524            1115     150.872E-03     152.888E-03
             523            1115     150.872E-03     152.888E-03
             507            1115     150.872E-03     152.888E-03
             506            1115     150.872E-03     152.888E-03
             525            1116     163.392E-03     165.935E-03
             507            1116     163.392E-03     165.935E-03
             508            1116     163.392E-03     165.935E-03
             524            1116     163.392E-03     165.935E-03
             509            1117     174.206E-03     177.645E-03
             525            1117     174.206E-03     177.645E-03
             508            1117     174.206E-03     177.645E-03
             526            1117     174.206E-03     177.645E-03
             510            1118     183.154E-03     185.625E-03
             527            1118     183.154E-03     185.625E-03
             509            1118     183.154E-03     185.625E-03
             526            1118     183.154E-03     185.625E-03
             528            1119     19.0392E-03     15.6090E-03
             511            1119     19.0392E-03     15.6090E-03
             529            1119     19.0392E-03     15.6090E-03
             512            1119     19.0392E-03     15.6090E-03
             529            1120     19.0674E-03     19.3531E-03
             513            1120     19.0674E-03     19.3531E-03
             512            1120     19.0674E-03     19.3531E-03
             530            1120     19.0674E-03     19.3531E-03
             513            1121     25.3298E-03     27.8642E-03
             514            1121     25.3298E-03     27.8642E-03
             530            1121     25.3298E-03     27.8642E-03
             531            1121     25.3298E-03     27.8642E-03
             515            1122     35.6853E-03     38.6285E-03
             514            1122     35.6853E-03     38.6285E-03
             532            1122     35.6853E-03     38.6285E-03
             531            1122     35.6853E-03     38.6285E-03
             533            1123     47.4271E-03     50.5192E-03
             516            1123     47.4271E-03     50.5192E-03
             532            1123     47.4271E-03     50.5192E-03
             515            1123     47.4271E-03     50.5192E-03
             517            1124     59.7478E-03     62.9346E-03
             533            1124     59.7478E-03     62.9346E-03
             516            1124     59.7478E-03     62.9346E-03
             534            1124     59.7478E-03     62.9346E-03
             517            1125     72.3433E-03     75.6014E-03
             518            1125     72.3433E-03     75.6014E-03
             534            1125     72.3433E-03     75.6014E-03
             535            1125     72.3433E-03     75.6014E-03
             535            1126     85.1210E-03     88.4197E-03
             536            1126     85.1210E-03     88.4197E-03
             518            1126     85.1210E-03     88.4197E-03
             519            1126     85.1210E-03     88.4197E-03
             536            1127     98.0415E-03     101.372E-03
             537            1127     98.0415E-03     101.372E-03
             519            1127     98.0415E-03     101.372E-03
             520            1127     98.0415E-03     101.372E-03
             520            1128     111.098E-03     114.467E-03
             537            1128     111.098E-03     114.467E-03
             521            1128     111.098E-03     114.467E-03
             538            1128     111.098E-03     114.467E-03
             538            1129     124.285E-03     127.749E-03
             522            1129     124.285E-03     127.749E-03
             539            1129     124.285E-03     127.749E-03
             521            1129     124.285E-03     127.749E-03
             522            1130     137.699E-03     141.380E-03
             539            1130     137.699E-03     141.380E-03
             523            1130     137.699E-03     141.380E-03
             540            1130     137.699E-03     141.380E-03
             540            1131     151.242E-03     155.385E-03
             541            1131     151.242E-03     155.385E-03
             524            1131     151.242E-03     155.385E-03
             523            1131     151.242E-03     155.385E-03
             524            1132     165.755E-03     170.209E-03
             541            1132     165.755E-03     170.209E-03
             525            1132     165.755E-03     170.209E-03
             542            1132     165.755E-03     170.209E-03
             526            1133     180.098E-03     184.742E-03
             525            1133     180.098E-03     184.742E-03
             543            1133     180.098E-03     184.742E-03
             542            1133     180.098E-03     184.742E-03
             527            1134     192.129E-03     197.060E-03
             543            1134     192.129E-03     197.060E-03
             544            1134     192.129E-03     197.060E-03
             526            1134     192.129E-03     197.060E-03
             546            1135     16.4522E-03     11.4156E-03
             528            1135     16.4522E-03     11.4156E-03
             545            1135     16.4522E-03     11.4156E-03
             529            1135     16.4522E-03     11.4156E-03
             529            1136     14.8967E-03     14.8597E-03
             546            1136     14.8967E-03     14.8597E-03
             530            1136     14.8967E-03     14.8597E-03
             547            1136     14.8967E-03     14.8597E-03
             531            1137     21.4425E-03     25.2778E-03
             530            1137     21.4425E-03     25.2778E-03
             548            1137     21.4425E-03     25.2778E-03
             547            1137     21.4425E-03     25.2778E-03
             548            1138     32.3834E-03     37.1616E-03
             549            1138     32.3834E-03     37.1616E-03
             531            1138     32.3834E-03     37.1616E-03
             532            1138     32.3834E-03     37.1616E-03
             532            1139     44.7042E-03     49.6403E-03
             549            1139     44.7042E-03     49.6403E-03
             533            1139     44.7042E-03     49.6403E-03
             550            1139     44.7042E-03     49.6403E-03
             551            1140     57.3422E-03     62.3581E-03
             533            1140     57.3422E-03     62.3581E-03
             550            1140     57.3422E-03     62.3581E-03
             534            1140     57.3422E-03     62.3581E-03
             552            1141     70.1507E-03     75.1908E-03
             551            1141     70.1507E-03     75.1908E-03
             535            1141     70.1507E-03     75.1908E-03
             534            1141     70.1507E-03     75.1908E-03
             553            1142     83.0624E-03     88.1170E-03
             552            1142     83.0624E-03     88.1170E-03
             535            1142     83.0624E-03     88.1170E-03
             536            1142     83.0624E-03     88.1170E-03
             536            1143     96.0423E-03     101.090E-03
             553            1143     96.0423E-03     101.090E-03
             554            1143     96.0423E-03     101.090E-03
             537            1143     96.0423E-03     101.090E-03
             537            1144     109.094E-03     114.144E-03
             555            1144     109.094E-03     114.144E-03
             538            1144     109.094E-03     114.144E-03
             554            1144     109.094E-03     114.144E-03
             539            1145     122.206E-03     127.305E-03
             555            1145     122.206E-03     127.305E-03
             538            1145     122.206E-03     127.305E-03
             556            1145     122.206E-03     127.305E-03
             556            1146     135.469E-03     140.676E-03
             539            1146     135.469E-03     140.676E-03
             557            1146     135.469E-03     140.676E-03
             540            1146     135.469E-03     140.676E-03
             541            1147     149.059E-03     154.550E-03
             557            1147     149.059E-03     154.550E-03
             540            1147     149.059E-03     154.550E-03
             558            1147     149.059E-03     154.550E-03
             558            1148     163.439E-03     169.229E-03
             559            1148     163.439E-03     169.229E-03
             541            1148     163.439E-03     169.229E-03
             542            1148     163.439E-03     169.229E-03
             559            1149     181.260E-03     186.387E-03
             543            1149     181.260E-03     186.387E-03
             560            1149     181.260E-03     186.387E-03
             542            1149     181.260E-03     186.387E-03
             560            1150     199.960E-03     202.572E-03
             544            1150     199.960E-03     202.572E-03
             543            1150     199.960E-03     202.572E-03
             561            1150     199.960E-03     202.572E-03
             546            1151     14.1279E-03     10.3893E-03
             545            1151     14.1279E-03     10.3893E-03
             563            1151     14.1279E-03     10.3893E-03
             562            1151     14.1279E-03     10.3893E-03
             563            1152     10.2078E-03     12.0346E-03
             564            1152     10.2078E-03     12.0346E-03
             547            1152     10.2078E-03     12.0346E-03
             546            1152     10.2078E-03     12.0346E-03
             547            1153     18.0751E-03     24.1765E-03
             564            1153     18.0751E-03     24.1765E-03
             565            1153     18.0751E-03     24.1765E-03
             548            1153     18.0751E-03     24.1765E-03
             566            1154     30.1803E-03     36.9778E-03
             549            1154     30.1803E-03     36.9778E-03
             565            1154     30.1803E-03     36.9778E-03
             548            1154     30.1803E-03     36.9778E-03
             567            1155     42.7830E-03     49.6974E-03
             566            1155     42.7830E-03     49.6974E-03
             550            1155     42.7830E-03     49.6974E-03
             549            1155     42.7830E-03     49.6974E-03
             568            1156     55.5050E-03     62.4061E-03
             567            1156     55.5050E-03     62.4061E-03
             550            1156     55.5050E-03     62.4061E-03
             551            1156     55.5050E-03     62.4061E-03
             551            1157     68.2664E-03     75.1434E-03
             568            1157     68.2664E-03     75.1434E-03
             569            1157     68.2664E-03     75.1434E-03
             552            1157     68.2664E-03     75.1434E-03
             552            1158     81.0276E-03     87.8521E-03
             553            1158     81.0276E-03     87.8521E-03
             570            1158     81.0276E-03     87.8521E-03
             569            1158     81.0276E-03     87.8521E-03
             570            1159     93.7575E-03     100.554E-03
             571            1159     93.7575E-03     100.554E-03
             553            1159     93.7575E-03     100.554E-03
             554            1159     93.7575E-03     100.554E-03
             571            1160     106.435E-03     113.171E-03
             572            1160     106.435E-03     113.171E-03
             554            1160     106.435E-03     113.171E-03
             555            1160     106.435E-03     113.171E-03
             556            1161     119.102E-03     125.763E-03
             572            1161     119.102E-03     125.763E-03
             555            1161     119.102E-03     125.763E-03
             573            1161     119.102E-03     125.763E-03
             574            1162     131.748E-03     138.281E-03
             556            1162     131.748E-03     138.281E-03
             573            1162     131.748E-03     138.281E-03
             557            1162     131.748E-03     138.281E-03
             575            1163     144.803E-03     151.095E-03
             557            1163     144.803E-03     151.095E-03
             558            1163     144.803E-03     151.095E-03
             574            1163     144.803E-03     151.095E-03
             576            1164     158.460E-03     164.549E-03
             559            1164     158.460E-03     164.549E-03
             558            1164     158.460E-03     164.549E-03
             575            1164     158.460E-03     164.549E-03
             577            1165     175.412E-03     181.157E-03
             576            1165     175.412E-03     181.157E-03
             559            1165     175.412E-03     181.157E-03
             560            1165     175.412E-03     181.157E-03
             560            1166     200.077E-03     204.207E-03
             561            1166     200.077E-03     204.207E-03
             578            1166     200.077E-03     204.207E-03
             577            1166     200.077E-03     204.207E-03
             579            1167     10.5873E-03     9.26402E-03
             563            1167     10.5873E-03     9.26402E-03
             562            1167     10.5873E-03     9.26402E-03
             580            1167     10.5873E-03     9.26402E-03
             564            1168     7.51215E-03     10.2879E-03
             580            1168     7.51215E-03     10.2879E-03
             563            1168     7.51215E-03     10.2879E-03
             581            1168     7.51215E-03     10.2879E-03
             581            1169     18.1125E-03     23.6051E-03
             582            1169     18.1125E-03     23.6051E-03
             565            1169     18.1125E-03     23.6051E-03
             564            1169     18.1125E-03     23.6051E-03
             583            1170     31.2385E-03     36.9231E-03
             566            1170     31.2385E-03     36.9231E-03
             582            1170     31.2385E-03     36.9231E-03
             565            1170     31.2385E-03     36.9231E-03
             584            1171     44.3659E-03     50.1115E-03
             566            1171     44.3659E-03     50.1115E-03
             567            1171     44.3659E-03     50.1115E-03
             583            1171     44.3659E-03     50.1115E-03
             568            1172     57.5426E-03     63.2495E-03
             584            1172     57.5426E-03     63.2495E-03
             567            1172     57.5426E-03     63.2495E-03
             585            1172     57.5426E-03     63.2495E-03
             585            1173     70.6965E-03     76.3798E-03
             586            1173     70.6965E-03     76.3798E-03
             568            1173     70.6965E-03     76.3798E-03
             569            1173     70.6965E-03     76.3798E-03
             569            1174     83.8418E-03     89.4752E-03
             586            1174     83.8418E-03     89.4752E-03
             570            1174     83.8418E-03     89.4752E-03
             587            1174     83.8418E-03     89.4752E-03
             570            1175     96.9184E-03     102.549E-03
             588            1175     96.9184E-03     102.549E-03
             587            1175     96.9184E-03     102.549E-03
             571            1175     96.9184E-03     102.549E-03
             571            1176     109.978E-03     115.542E-03
             589            1176     109.978E-03     115.542E-03
             572            1176     109.978E-03     115.542E-03
             588            1176     109.978E-03     115.542E-03
             573            1177     122.944E-03     128.473E-03
             589            1177     122.944E-03     128.473E-03
             572            1177     122.944E-03     128.473E-03
             590            1177     122.944E-03     128.473E-03
             590            1178     135.975E-03     141.313E-03
             573            1178     135.975E-03     141.313E-03
             574            1178     135.975E-03     141.313E-03
             591            1178     135.975E-03     141.313E-03
             575            1179     149.016E-03     154.155E-03
             592            1179     149.016E-03     154.155E-03
             574            1179     149.016E-03     154.155E-03
             591            1179     149.016E-03     154.155E-03
             593            1180     162.682E-03     167.391E-03
             575            1180     162.682E-03     167.391E-03
             592            1180     162.682E-03     167.391E-03
             576            1180     162.682E-03     167.391E-03
             576            1181     177.086E-03     181.663E-03
             594            1181     177.086E-03     181.663E-03
             577            1181     177.086E-03     181.663E-03
             593            1181     177.086E-03     181.663E-03
             577            1182     196.519E-03     202.757E-03
             578            1182     196.519E-03     202.757E-03
             595            1182     196.519E-03     202.757E-03
             594            1182     196.519E-03     202.757E-03
             596            1183     238.929E-06     257.025E-06
             614            1183     238.929E-06     257.025E-06
             597            1183     238.929E-06     257.025E-06
             613            1183     238.929E-06     257.025E-06
             598            1184     240.082E-06     253.715E-06
             614            1184     240.082E-06     253.715E-06
             615            1184     240.082E-06     253.715E-06
             597            1184     240.082E-06     253.715E-06
             615            1185     240.696E-06     255.997E-06
             616            1185     240.696E-06     255.997E-06
             599            1185     240.696E-06     255.997E-06
             598            1185     240.696E-06     255.997E-06
             600            1186     240.123E-06     259.829E-06
             599            1186     240.123E-06     259.829E-06
             617            1186     240.123E-06     259.829E-06
             616            1186     240.123E-06     259.829E-06
             617            1187     240.355E-06     263.124E-06
             601            1187     240.355E-06     263.124E-06
             600            1187     240.355E-06     263.124E-06
             618            1187     240.355E-06     263.124E-06
             619            1188     241.836E-06     267.135E-06
             601            1188     241.836E-06     267.135E-06
             602            1188     241.836E-06     267.135E-06
             618            1188     241.836E-06     267.135E-06
             603            1189     243.836E-06     271.520E-06
             602            1189     243.836E-06     271.520E-06
             620            1189     243.836E-06     271.520E-06
             619            1189     243.836E-06     271.520E-06
             603            1190     246.851E-06     276.305E-06
             620            1190     246.851E-06     276.305E-06
             604            1190     246.851E-06     276.305E-06
             621            1190     246.851E-06     276.305E-06
             621            1191     250.555E-06     281.668E-06
             622            1191     250.555E-06     281.668E-06
             604            1191     250.555E-06     281.668E-06
             605            1191     250.555E-06     281.668E-06
             622            1192     255.283E-06     287.373E-06
             623            1192     255.283E-06     287.373E-06
             605            1192     255.283E-06     287.373E-06
             606            1192     255.283E-06     287.373E-06
             607            1193     260.952E-06     293.790E-06
             606            1193     260.952E-06     293.790E-06
             623            1193     260.952E-06     293.790E-06
             624            1193     260.952E-06     293.790E-06
             625            1194     266.800E-06     300.030E-06
             608            1194     266.800E-06     300.030E-06
             624            1194     266.800E-06     300.030E-06
             607            1194     266.800E-06     300.030E-06
             625            1195     273.944E-06     307.256E-06
             609            1195     273.944E-06     307.256E-06
             608            1195     273.944E-06     307.256E-06
             626            1195     273.944E-06     307.256E-06
             626            1196     274.605E-06     310.646E-06
             609            1196     274.605E-06     310.646E-06
             627            1196     274.605E-06     310.646E-06
             610            1196     274.605E-06     310.646E-06
             610            1197     287.553E-06     323.013E-06
             627            1197     287.553E-06     323.013E-06
             611            1197     287.553E-06     323.013E-06
             628            1197     287.553E-06     323.013E-06
             611            1198     348.832E-06     380.554E-06
             612            1198     348.832E-06     380.554E-06
             628            1198     348.832E-06     380.554E-06
             629            1198     348.832E-06     380.554E-06
             631            1199     263.872E-06     242.220E-06
             614            1199     263.872E-06     242.220E-06
             613            1199     263.872E-06     242.220E-06
             630            1199     263.872E-06     242.220E-06
             631            1200     251.389E-06     256.438E-06
             632            1200     251.389E-06     256.438E-06
             615            1200     251.389E-06     256.438E-06
             614            1200     251.389E-06     256.438E-06
             616            1201     246.523E-06     259.196E-06
             633            1201     246.523E-06     259.196E-06
             615            1201     246.523E-06     259.196E-06
             632            1201     246.523E-06     259.196E-06
             633            1202     247.574E-06     259.461E-06
             634            1202     247.574E-06     259.461E-06
             617            1202     247.574E-06     259.461E-06
             616            1202     247.574E-06     259.461E-06
             635            1203     249.229E-06     262.052E-06
             618            1203     249.229E-06     262.052E-06
             634            1203     249.229E-06     262.052E-06
             617            1203     249.229E-06     262.052E-06
             619            1204     251.339E-06     265.233E-06
             636            1204     251.339E-06     265.233E-06
             635            1204     251.339E-06     265.233E-06
             618            1204     251.339E-06     265.233E-06
             636            1205     254.321E-06     268.958E-06
             619            1205     254.321E-06     268.958E-06
             620            1205     254.321E-06     268.958E-06
             637            1205     254.321E-06     268.958E-06
             620            1206     257.820E-06     273.156E-06
             638            1206     257.820E-06     273.156E-06
             637            1206     257.820E-06     273.156E-06
             621            1206     257.820E-06     273.156E-06
             621            1207     262.004E-06     277.806E-06
             639            1207     262.004E-06     277.806E-06
             638            1207     262.004E-06     277.806E-06
             622            1207     262.004E-06     277.806E-06
             623            1208     266.949E-06     283.166E-06
             622            1208     266.949E-06     283.166E-06
             639            1208     266.949E-06     283.166E-06
             640            1208     266.949E-06     283.166E-06
             641            1209     272.875E-06     289.343E-06
             623            1209     272.875E-06     289.343E-06
             624            1209     272.875E-06     289.343E-06
             640            1209     272.875E-06     289.343E-06
             641            1210     280.577E-06     297.111E-06
             642            1210     280.577E-06     297.111E-06
             624            1210     280.577E-06     297.111E-06
             625            1210     280.577E-06     297.111E-06
             643            1211     289.612E-06     306.296E-06
             625            1211     289.612E-06     306.296E-06
             626            1211     289.612E-06     306.296E-06
             642            1211     289.612E-06     306.296E-06
             644            1212     299.037E-06     315.404E-06
             627            1212     299.037E-06     315.404E-06
             626            1212     299.037E-06     315.404E-06
             643            1212     299.037E-06     315.404E-06
             645            1213     294.005E-06     314.090E-06
             644            1213     294.005E-06     314.090E-06
             627            1213     294.005E-06     314.090E-06
             628            1213     294.005E-06     314.090E-06
             645            1214     276.804E-06     284.387E-06
             629            1214     276.804E-06     284.387E-06
             628            1214     276.804E-06     284.387E-06
             646            1214     276.804E-06     284.387E-06
             647            1215     270.732E-06     249.733E-06
             630            1215     270.732E-06     249.733E-06
             648            1215     270.732E-06     249.733E-06
             631            1215     270.732E-06     249.733E-06
             648            1216     259.541E-06     260.942E-06
             631            1216     259.541E-06     260.942E-06
             632            1216     259.541E-06     260.942E-06
             649            1216     259.541E-06     260.942E-06
             649            1217     256.605E-06     261.672E-06
             632            1217     256.605E-06     261.672E-06
             633            1217     256.605E-06     261.672E-06
             650            1217     256.605E-06     261.672E-06
             633            1218     258.813E-06     260.951E-06
             634            1218     258.813E-06     260.951E-06
             651            1218     258.813E-06     260.951E-06
             650            1218     258.813E-06     260.951E-06
             651            1219     261.286E-06     262.503E-06
             634            1219     261.286E-06     262.503E-06
             635            1219     261.286E-06     262.503E-06
             652            1219     261.286E-06     262.503E-06
             635            1220     264.150E-06     264.690E-06
             653            1220     264.150E-06     264.690E-06
             636            1220     264.150E-06     264.690E-06
             652            1220     264.150E-06     264.690E-06
             653            1221     267.586E-06     267.497E-06
             636            1221     267.586E-06     267.497E-06
             637            1221     267.586E-06     267.497E-06
             654            1221     267.586E-06     267.497E-06
             637            1222     271.355E-06     270.721E-06
             655            1222     271.355E-06     270.721E-06
             654            1222     271.355E-06     270.721E-06
             638            1222     271.355E-06     270.721E-06
             638            1223     275.578E-06     274.456E-06
             656            1223     275.578E-06     274.456E-06
             639            1223     275.578E-06     274.456E-06
             655            1223     275.578E-06     274.456E-06
             640            1224     280.249E-06     278.740E-06
             639            1224     280.249E-06     278.740E-06
             656            1224     280.249E-06     278.740E-06
             657            1224     280.249E-06     278.740E-06
             641            1225     285.686E-06     283.858E-06
             658            1225     285.686E-06     283.858E-06
             640            1225     285.686E-06     283.858E-06
             657            1225     285.686E-06     283.858E-06
             641            1226     292.738E-06     290.752E-06
             659            1226     292.738E-06     290.752E-06
             658            1226     292.738E-06     290.752E-06
             642            1226     292.738E-06     290.752E-06
             642            1227     300.248E-06     297.835E-06
             643            1227     300.248E-06     297.835E-06
             660            1227     300.248E-06     297.835E-06
             659            1227     300.248E-06     297.835E-06
             660            1228     309.557E-06     305.269E-06
             661            1228     309.557E-06     305.269E-06
             643            1228     309.557E-06     305.269E-06
             644            1228     309.557E-06     305.269E-06
             645            1229     279.387E-06     283.066E-06
             644            1229     279.387E-06     283.066E-06
             661            1229     279.387E-06     283.066E-06
             662            1229     279.387E-06     283.066E-06
             646            1230     179.691E-06     194.571E-06
             645            1230     179.691E-06     194.571E-06
             662            1230     179.691E-06     194.571E-06
             663            1230     179.691E-06     194.571E-06
             665            1231     259.911E-06     275.779E-06
             647            1231     259.911E-06     275.779E-06
             648            1231     259.911E-06     275.779E-06
             664            1231     259.911E-06     275.779E-06
             666            1232     265.751E-06     266.012E-06
             649            1232     265.751E-06     266.012E-06
             648            1232     265.751E-06     266.012E-06
             665            1232     265.751E-06     266.012E-06
             666            1233     270.640E-06     263.661E-06
             650            1233     270.640E-06     263.661E-06
             649            1233     270.640E-06     263.661E-06
             667            1233     270.640E-06     263.661E-06
             650            1234     273.396E-06     264.217E-06
             667            1234     273.396E-06     264.217E-06
             668            1234     273.396E-06     264.217E-06
             651            1234     273.396E-06     264.217E-06
             651            1235     276.302E-06     264.442E-06
             652            1235     276.302E-06     264.442E-06
             668            1235     276.302E-06     264.442E-06
             669            1235     276.302E-06     264.442E-06
             670            1236     279.892E-06     265.612E-06
             669            1236     279.892E-06     265.612E-06
             653            1236     279.892E-06     265.612E-06
             652            1236     279.892E-06     265.612E-06
             653            1237     283.427E-06     267.217E-06
             671            1237     283.427E-06     267.217E-06
             654            1237     283.427E-06     267.217E-06
             670            1237     283.427E-06     267.217E-06
             671            1238     287.347E-06     269.320E-06
             655            1238     287.347E-06     269.320E-06
             672            1238     287.347E-06     269.320E-06
             654            1238     287.347E-06     269.320E-06
             655            1239     291.270E-06     271.885E-06
             672            1239     291.270E-06     271.885E-06
             673            1239     291.270E-06     271.885E-06
             656            1239     291.270E-06     271.885E-06
             657            1240     295.370E-06     274.757E-06
             673            1240     295.370E-06     274.757E-06
             674            1240     295.370E-06     274.757E-06
             656            1240     295.370E-06     274.757E-06
             657            1241     299.548E-06     277.880E-06
             674            1241     299.548E-06     277.880E-06
             675            1241     299.548E-06     277.880E-06
             658            1241     299.548E-06     277.880E-06
             658            1242     302.968E-06     280.607E-06
             676            1242     302.968E-06     280.607E-06
             659            1242     302.968E-06     280.607E-06
             675            1242     302.968E-06     280.607E-06
             676            1243     305.444E-06     281.816E-06
             677            1243     305.444E-06     281.816E-06
             659            1243     305.444E-06     281.816E-06
             660            1243     305.444E-06     281.816E-06
             678            1244     295.877E-06     272.151E-06
             661            1244     295.877E-06     272.151E-06
             660            1244     295.877E-06     272.151E-06
             677            1244     295.877E-06     272.151E-06
             661            1245     260.131E-06     235.748E-06
             662            1245     260.131E-06     235.748E-06
             678            1245     260.131E-06     235.748E-06
             679            1245     260.131E-06     235.748E-06
             662            1246     146.488E-06     158.277E-06
             663            1246     146.488E-06     158.277E-06
             680            1246     146.488E-06     158.277E-06
             679            1246     146.488E-06     158.277E-06
             686            1247     482.002E-06     468.993E-06
             681            1247     482.002E-06     468.993E-06
             687            1247     482.002E-06     468.993E-06
             682            1247     482.002E-06     468.993E-06
             682            1248     435.053E-06     422.865E-06
             687            1248     435.053E-06     422.865E-06
             688            1248     435.053E-06     422.865E-06
             683            1248     435.053E-06     422.865E-06
             684            1249     382.512E-06     382.640E-06
             688            1249     382.512E-06     382.640E-06
             689            1249     382.512E-06     382.640E-06
             683            1249     382.512E-06     382.640E-06
             689            1250     434.123E-06     444.275E-06
             684            1250     434.123E-06     444.275E-06
             690            1250     434.123E-06     444.275E-06
             685            1250     434.123E-06     444.275E-06
             691            1251     476.104E-06     468.178E-06
             692            1251     476.104E-06     468.178E-06
             687            1251     476.104E-06     468.178E-06
             686            1251     476.104E-06     468.178E-06
             692            1252     416.492E-06     398.564E-06
             688            1252     416.492E-06     398.564E-06
             693            1252     416.492E-06     398.564E-06
             687            1252     416.492E-06     398.564E-06
             694            1253     338.127E-06     305.272E-06
             693            1253     338.127E-06     305.272E-06
             688            1253     338.127E-06     305.272E-06
             689            1253     338.127E-06     305.272E-06
             694            1254     322.287E-06     290.010E-06
             689            1254     322.287E-06     290.010E-06
             695            1254     322.287E-06     290.010E-06
             690            1254     322.287E-06     290.010E-06
             696            1255     463.889E-06     461.207E-06
             697            1255     463.889E-06     461.207E-06
             692            1255     463.889E-06     461.207E-06
             691            1255     463.889E-06     461.207E-06
             692            1256     376.688E-06     386.753E-06
             693            1256     376.688E-06     386.753E-06
             698            1256     376.688E-06     386.753E-06
             697            1256     376.688E-06     386.753E-06
             698            1257     244.770E-06     266.430E-06
             699            1257     244.770E-06     266.430E-06
             694            1257     244.770E-06     266.430E-06
             693            1257     244.770E-06     266.430E-06
             700            1258     175.980E-06     201.680E-06
             694            1258     175.980E-06     201.680E-06
             695            1258     175.980E-06     201.680E-06
             699            1258     175.980E-06     201.680E-06
             702            1259     465.213E-06     454.836E-06
             701            1259     465.213E-06     454.836E-06
             697            1259     465.213E-06     454.836E-06
             696            1259     465.213E-06     454.836E-06
             702            1260     370.318E-06     366.638E-06
             698            1260     370.318E-06     366.638E-06
             697            1260     370.318E-06     366.638E-06
             703            1260     370.318E-06     366.638E-06
             703            1261     228.038E-06     233.926E-06
             699            1261     228.038E-06     233.926E-06
             698            1261     228.038E-06     233.926E-06
             704            1261     228.038E-06     233.926E-06
             699            1262     153.871E-06     177.350E-06
             700            1262     153.871E-06     177.350E-06
             704            1262     153.871E-06     177.350E-06
             705            1262     153.871E-06     177.350E-06
             712            1263     40.7486E-03     40.2412E-03
             707            1263     40.7486E-03     40.2412E-03
             711            1263     40.7486E-03     40.2412E-03
             706            1263     40.7486E-03     40.2412E-03
             708            1264     36.1642E-03     35.9127E-03
             712            1264     36.1642E-03     35.9127E-03
             713            1264     36.1642E-03     35.9127E-03
             707            1264     36.1642E-03     35.9127E-03
             713            1265     29.2617E-03     29.1949E-03
             708            1265     29.2617E-03     29.1949E-03
             714            1265     29.2617E-03     29.1949E-03
             709            1265     29.2617E-03     29.1949E-03
             710            1266     17.1073E-03     19.6342E-03
             714            1266     17.1073E-03     19.6342E-03
             709            1266     17.1073E-03     19.6342E-03
             715            1266     17.1073E-03     19.6342E-03
             712            1267     41.7435E-03     41.2903E-03
             717            1267     41.7435E-03     41.2903E-03
             716            1267     41.7435E-03     41.2903E-03
             711            1267     41.7435E-03     41.2903E-03
             712            1268     36.4771E-03     36.5888E-03
             718            1268     36.4771E-03     36.5888E-03
             713            1268     36.4771E-03     36.5888E-03
             717            1268     36.4771E-03     36.5888E-03
             713            1269     29.2636E-03     29.5781E-03
             718            1269     29.2636E-03     29.5781E-03
             714            1269     29.2636E-03     29.5781E-03
             719            1269     29.2636E-03     29.5781E-03
             715            1270     18.9822E-03     20.7203E-03
             714            1270     18.9822E-03     20.7203E-03
             719            1270     18.9822E-03     20.7203E-03
             720            1270     18.9822E-03     20.7203E-03
             721            1271     43.5091E-03     43.1273E-03
             717            1271     43.5091E-03     43.1273E-03
             716            1271     43.5091E-03     43.1273E-03
             722            1271     43.5091E-03     43.1273E-03
             718            1272     37.9139E-03     38.3868E-03
             723            1272     37.9139E-03     38.3868E-03
             722            1272     37.9139E-03     38.3868E-03
             717            1272     37.9139E-03     38.3868E-03
             723            1273     29.9146E-03     30.9102E-03
             718            1273     29.9146E-03     30.9102E-03
             719            1273     29.9146E-03     30.9102E-03
             724            1273     29.9146E-03     30.9102E-03
             725            1274     18.4727E-03     19.6740E-03
             720            1274     18.4727E-03     19.6740E-03
             724            1274     18.4727E-03     19.6740E-03
             719            1274     18.4727E-03     19.6740E-03
             726            1275     43.9325E-03     43.5558E-03
             721            1275     43.9325E-03     43.5558E-03
             722            1275     43.9325E-03     43.5558E-03
             727            1275     43.9325E-03     43.5558E-03
             728            1276     39.4945E-03     39.6237E-03
             727            1276     39.4945E-03     39.6237E-03
             722            1276     39.4945E-03     39.6237E-03
             723            1276     39.4945E-03     39.6237E-03
             729            1277     32.1579E-03     31.9375E-03
             724            1277     32.1579E-03     31.9375E-03
             723            1277     32.1579E-03     31.9375E-03
             728            1277     32.1579E-03     31.9375E-03
             730            1278     22.6331E-03     21.4225E-03
             724            1278     22.6331E-03     21.4225E-03
             725            1278     22.6331E-03     21.4225E-03
             729            1278     22.6331E-03     21.4225E-03
             727            1279     43.8607E-03     44.2331E-03
             726            1279     43.8607E-03     44.2331E-03
             731            1279     43.8607E-03     44.2331E-03
             732            1279     43.8607E-03     44.2331E-03
             727            1280     40.5746E-03     41.6885E-03
             728            1280     40.5746E-03     41.6885E-03
             733            1280     40.5746E-03     41.6885E-03
             732            1280     40.5746E-03     41.6885E-03
             734            1281     34.4688E-03     36.4307E-03
             729            1281     34.4688E-03     36.4307E-03
             728            1281     34.4688E-03     36.4307E-03
             733            1281     34.4688E-03     36.4307E-03
             734            1282     28.7212E-03     30.6948E-03
             729            1282     28.7212E-03     30.6948E-03
             730            1282     28.7212E-03     30.6948E-03
             735            1282     28.7212E-03     30.6948E-03
             736            1283     45.2738E-03     44.9858E-03
             737            1283     45.2738E-03     44.9858E-03
             732            1283     45.2738E-03     44.9858E-03
             731            1283     45.2738E-03     44.9858E-03
             738            1284     44.6399E-03     43.0886E-03
             733            1284     44.6399E-03     43.0886E-03
             737            1284     44.6399E-03     43.0886E-03
             732            1284     44.6399E-03     43.0886E-03
             733            1285     42.5663E-03     40.6765E-03
             739            1285     42.5663E-03     40.6765E-03
             738            1285     42.5663E-03     40.6765E-03
             734            1285     42.5663E-03     40.6765E-03
             739            1286     41.0929E-03     39.5842E-03
             740            1286     41.0929E-03     39.5842E-03
             734            1286     41.0929E-03     39.5842E-03
             735            1286     41.0929E-03     39.5842E-03
             737            1287     45.6971E-03     44.4830E-03
             736            1287     45.6971E-03     44.4830E-03
             741            1287     45.6971E-03     44.4830E-03
             742            1287     45.6971E-03     44.4830E-03
             742            1288     46.2953E-03     44.5796E-03
             743            1288     46.2953E-03     44.5796E-03
             738            1288     46.2953E-03     44.5796E-03
             737            1288     46.2953E-03     44.5796E-03
             739            1289     46.2541E-03     45.5852E-03
             743            1289     46.2541E-03     45.5852E-03
             738            1289     46.2541E-03     45.5852E-03
             744            1289     46.2541E-03     45.5852E-03
             745            1290     49.7624E-03     49.8188E-03
             744            1290     49.7624E-03     49.8188E-03
             740            1290     49.7624E-03     49.8188E-03
             739            1290     49.7624E-03     49.8188E-03
             746            1291     45.0544E-03     44.8043E-03
             742            1291     45.0544E-03     44.8043E-03
             741            1291     45.0544E-03     44.8043E-03
             747            1291     45.0544E-03     44.8043E-03
             747            1292     43.6886E-03     45.9618E-03
             742            1292     43.6886E-03     45.9618E-03
             743            1292     43.6886E-03     45.9618E-03
             748            1292     43.6886E-03     45.9618E-03
             748            1293     42.9542E-03     49.2328E-03
             743            1293     42.9542E-03     49.2328E-03
             744            1293     42.9542E-03     49.2328E-03
             749            1293     42.9542E-03     49.2328E-03
             750            1294     44.3418E-03     50.6518E-03
             749            1294     44.3418E-03     50.6518E-03
             744            1294     44.3418E-03     50.6518E-03
             745            1294     44.3418E-03     50.6518E-03
             746            1295     45.9871E-03     45.6880E-03
             752            1295     45.9871E-03     45.6880E-03
             747            1295     45.9871E-03     45.6880E-03
             751            1295     45.9871E-03     45.6880E-03
             753            1296     45.1097E-03     46.1569E-03
             748            1296     45.1097E-03     46.1569E-03
             752            1296     45.1097E-03     46.1569E-03
             747            1296     45.1097E-03     46.1569E-03
             749            1297     46.4722E-03     47.5337E-03
             748            1297     46.4722E-03     47.5337E-03
             754            1297     46.4722E-03     47.5337E-03
             753            1297     46.4722E-03     47.5337E-03
             750            1298     44.6222E-03     43.0650E-03
             755            1298     44.6222E-03     43.0650E-03
             754            1298     44.6222E-03     43.0650E-03
             749            1298     44.6222E-03     43.0650E-03
             751            1299     47.0090E-03     46.7620E-03
             756            1299     47.0090E-03     46.7620E-03
             757            1299     47.0090E-03     46.7620E-03
             752            1299     47.0090E-03     46.7620E-03
             758            1300     48.2359E-03     49.2390E-03
             757            1300     48.2359E-03     49.2390E-03
             752            1300     48.2359E-03     49.2390E-03
             753            1300     48.2359E-03     49.2390E-03
             754            1301     49.3262E-03     51.1457E-03
             759            1301     49.3262E-03     51.1457E-03
             753            1301     49.3262E-03     51.1457E-03
             758            1301     49.3262E-03     51.1457E-03
             759            1302     48.7256E-03     49.8466E-03
             760            1302     48.7256E-03     49.8466E-03
             754            1302     48.7256E-03     49.8466E-03
             755            1302     48.7256E-03     49.8466E-03
             757            1303     48.4033E-03     47.9689E-03
             756            1303     48.4033E-03     47.9689E-03
             761            1303     48.4033E-03     47.9689E-03
             762            1303     48.4033E-03     47.9689E-03
             763            1304     51.6355E-03     51.2050E-03
             757            1304     51.6355E-03     51.2050E-03
             762            1304     51.6355E-03     51.2050E-03
             758            1304     51.6355E-03     51.2050E-03
             758            1305     54.2885E-03     53.9905E-03
             763            1305     54.2885E-03     53.9905E-03
             759            1305     54.2885E-03     53.9905E-03
             764            1305     54.2885E-03     53.9905E-03
             760            1306     57.1354E-03     56.5139E-03
             764            1306     57.1354E-03     56.5139E-03
             759            1306     57.1354E-03     56.5139E-03
             765            1306     57.1354E-03     56.5139E-03
             767            1307     48.7087E-03     49.4183E-03
             761            1307     48.7087E-03     49.4183E-03
             766            1307     48.7087E-03     49.4183E-03
             762            1307     48.7087E-03     49.4183E-03
             768            1308     53.7403E-03     55.3899E-03
             767            1308     53.7403E-03     55.3899E-03
             763            1308     53.7403E-03     55.3899E-03
             762            1308     53.7403E-03     55.3899E-03
             768            1309     58.0404E-03     62.6300E-03
             769            1309     58.0404E-03     62.6300E-03
             763            1309     58.0404E-03     62.6300E-03
             764            1309     58.0404E-03     62.6300E-03
             765            1310     63.8451E-03     68.8004E-03
             764            1310     63.8451E-03     68.8004E-03
             769            1310     63.8451E-03     68.8004E-03
             770            1310     63.8451E-03     68.8004E-03
             767            1311     51.3281E-03     50.7292E-03
             766            1311     51.3281E-03     50.7292E-03
             772            1311     51.3281E-03     50.7292E-03
             771            1311     51.3281E-03     50.7292E-03
             768            1312     61.4612E-03     58.0972E-03
             772            1312     61.4612E-03     58.0972E-03
             773            1312     61.4612E-03     58.0972E-03
             767            1312     61.4612E-03     58.0972E-03
             774            1313     71.1984E-03     68.7506E-03
             769            1313     71.1984E-03     68.7506E-03
             768            1313     71.1984E-03     68.7506E-03
             773            1313     71.1984E-03     68.7506E-03
             775            1314     79.9004E-03     78.2256E-03
             774            1314     79.9004E-03     78.2256E-03
             769            1314     79.9004E-03     78.2256E-03
             770            1314     79.9004E-03     78.2256E-03
             776            1315     51.7443E-03     49.7737E-03
             771            1315     51.7443E-03     49.7737E-03
             772            1315     51.7443E-03     49.7737E-03
             777            1315     51.7443E-03     49.7737E-03
             773            1316     63.8068E-03     60.5672E-03
             772            1316     63.8068E-03     60.5672E-03
             777            1316     63.8068E-03     60.5672E-03
             778            1316     63.8068E-03     60.5672E-03
             774            1317     76.7085E-03     75.2537E-03
             773            1317     76.7085E-03     75.2537E-03
             778            1317     76.7085E-03     75.2537E-03
             779            1317     76.7085E-03     75.2537E-03
             774            1318     90.1138E-03     89.5830E-03
             775            1318     90.1138E-03     89.5830E-03
             779            1318     90.1138E-03     89.5830E-03
             780            1318     90.1138E-03     89.5830E-03
             777            1319     49.5609E-03     50.1832E-03
             776            1319     49.5609E-03     50.1832E-03
             782            1319     49.5609E-03     50.1832E-03
             781            1319     49.5609E-03     50.1832E-03
             778            1320     57.2394E-03     63.3387E-03
             777            1320     57.2394E-03     63.3387E-03
             783            1320     57.2394E-03     63.3387E-03
             782            1320     57.2394E-03     63.3387E-03
             783            1321     68.0279E-03     81.3401E-03
             784            1321     68.0279E-03     81.3401E-03
             779            1321     68.0279E-03     81.3401E-03
             778            1321     68.0279E-03     81.3401E-03
             780            1322     79.8013E-03     92.0717E-03
             784            1322     79.8013E-03     92.0717E-03
             779            1322     79.8013E-03     92.0717E-03
             785            1322     79.8013E-03     92.0717E-03
             786            1323     51.5159E-03     51.4400E-03
             781            1323     51.5159E-03     51.4400E-03
             787            1323     51.5159E-03     51.4400E-03
             782            1323     51.5159E-03     51.4400E-03
             787            1324     61.7381E-03     62.2741E-03
             788            1324     61.7381E-03     62.2741E-03
             782            1324     61.7381E-03     62.2741E-03
             783            1324     61.7381E-03     62.2741E-03
             789            1325     75.4838E-03     76.8284E-03
             783            1325     75.4838E-03     76.8284E-03
             784            1325     75.4838E-03     76.8284E-03
             788            1325     75.4838E-03     76.8284E-03
             789            1326     82.3123E-03     81.6005E-03
             784            1326     82.3123E-03     81.6005E-03
             790            1326     82.3123E-03     81.6005E-03
             785            1326     82.3123E-03     81.6005E-03
             786            1327     53.8709E-03     52.5394E-03
             787            1327     53.8709E-03     52.5394E-03
             792            1327     53.8709E-03     52.5394E-03
             791            1327     53.8709E-03     52.5394E-03
             792            1328     67.0353E-03     65.0690E-03
             793            1328     67.0353E-03     65.0690E-03
             787            1328     67.0353E-03     65.0690E-03
             788            1328     67.0353E-03     65.0690E-03
             793            1329     80.5624E-03     78.2554E-03
             788            1329     80.5624E-03     78.2554E-03
             794            1329     80.5624E-03     78.2554E-03
             789            1329     80.5624E-03     78.2554E-03
             789            1330     88.9269E-03     85.8490E-03
             790            1330     88.9269E-03     85.8490E-03
             794            1330     88.9269E-03     85.8490E-03
             795            1330     88.9269E-03     85.8490E-03
             797            1331     54.0191E-03     55.4583E-03
             791            1331     54.0191E-03     55.4583E-03
             792            1331     54.0191E-03     55.4583E-03
             796            1331     54.0191E-03     55.4583E-03
             792            1332     67.1563E-03     71.4042E-03
             797            1332     67.1563E-03     71.4042E-03
             798            1332     67.1563E-03     71.4042E-03
             793            1332     67.1563E-03     71.4042E-03
             793            1333     78.6818E-03     87.8424E-03
             794            1333     78.6818E-03     87.8424E-03
             799            1333     78.6818E-03     87.8424E-03
             798            1333     78.6818E-03     87.8424E-03
             799            1334     90.4367E-03     99.5280E-03
             794            1334     90.4367E-03     99.5280E-03
             795            1334     90.4367E-03     99.5280E-03
             800            1334     90.4367E-03     99.5280E-03
             797            1335     57.2828E-03     56.7505E-03
             801            1335     57.2828E-03     56.7505E-03
             802            1335     57.2828E-03     56.7505E-03
             796            1335     57.2828E-03     56.7505E-03
             797            1336     77.7977E-03     72.8825E-03
             802            1336     77.7977E-03     72.8825E-03
             803            1336     77.7977E-03     72.8825E-03
             798            1336     77.7977E-03     72.8825E-03
             804            1337     96.6796E-03     91.8243E-03
             803            1337     96.6796E-03     91.8243E-03
             798            1337     96.6796E-03     91.8243E-03
             799            1337     96.6796E-03     91.8243E-03
             804            1338     111.217E-03     107.474E-03
             799            1338     111.217E-03     107.474E-03
             805            1338     111.217E-03     107.474E-03
             800            1338     111.217E-03     107.474E-03
             806            1339     57.5004E-03     55.1535E-03
             802            1339     57.5004E-03     55.1535E-03
             801            1339     57.5004E-03     55.1535E-03
             807            1339     57.5004E-03     55.1535E-03
             807            1340     79.9124E-03     75.7674E-03
             803            1340     79.9124E-03     75.7674E-03
             808            1340     79.9124E-03     75.7674E-03
             802            1340     79.9124E-03     75.7674E-03
             804            1341     102.029E-03     100.445E-03
             809            1341     102.029E-03     100.445E-03
             808            1341     102.029E-03     100.445E-03
             803            1341     102.029E-03     100.445E-03
             804            1342     121.835E-03     121.465E-03
             809            1342     121.835E-03     121.465E-03
             805            1342     121.835E-03     121.465E-03
             810            1342     121.835E-03     121.465E-03
             807            1343     54.4059E-03     55.8002E-03
             811            1343     54.4059E-03     55.8002E-03
             812            1343     54.4059E-03     55.8002E-03
             806            1343     54.4059E-03     55.8002E-03
             812            1344     70.9786E-03     80.1538E-03
             807            1344     70.9786E-03     80.1538E-03
             813            1344     70.9786E-03     80.1538E-03
             808            1344     70.9786E-03     80.1538E-03
             808            1345     91.0484E-03     110.404E-03
             809            1345     91.0484E-03     110.404E-03
             813            1345     91.0484E-03     110.404E-03
             814            1345     91.0484E-03     110.404E-03
             814            1346     110.136E-03     128.007E-03
             809            1346     110.136E-03     128.007E-03
             815            1346     110.136E-03     128.007E-03
             810            1346     110.136E-03     128.007E-03
             812            1347     57.2815E-03     56.7369E-03
             816            1347     57.2815E-03     56.7369E-03
             817            1347     57.2815E-03     56.7369E-03
             811            1347     57.2815E-03     56.7369E-03
             818            1348     77.6545E-03     77.9702E-03
             812            1348     77.6545E-03     77.9702E-03
             813            1348     77.6545E-03     77.9702E-03
             817            1348     77.6545E-03     77.9702E-03
             818            1349     102.602E-03     103.298E-03
             814            1349     102.602E-03     103.298E-03
             819            1349     102.602E-03     103.298E-03
             813            1349     102.602E-03     103.298E-03
             820            1350     116.958E-03     114.087E-03
             815            1350     116.958E-03     114.087E-03
             814            1350     116.958E-03     114.087E-03
             819            1350     116.958E-03     114.087E-03
             821            1351     60.2429E-03     59.0098E-03
             816            1351     60.2429E-03     59.0098E-03
             822            1351     60.2429E-03     59.0098E-03
             817            1351     60.2429E-03     59.0098E-03
             822            1352     83.3986E-03     82.8278E-03
             818            1352     83.3986E-03     82.8278E-03
             823            1352     83.3986E-03     82.8278E-03
             817            1352     83.3986E-03     82.8278E-03
             823            1353     105.577E-03     106.934E-03
             818            1353     105.577E-03     106.934E-03
             824            1353     105.577E-03     106.934E-03
             819            1353     105.577E-03     106.934E-03
             820            1354     119.498E-03     120.717E-03
             825            1354     119.498E-03     120.717E-03
             819            1354     119.498E-03     120.717E-03
             824            1354     119.498E-03     120.717E-03
             822            1355     62.4230E-03     61.5637E-03
             821            1355     62.4230E-03     61.5637E-03
             826            1355     62.4230E-03     61.5637E-03
             827            1355     62.4230E-03     61.5637E-03
             823            1356     85.7556E-03     85.6740E-03
             828            1356     85.7556E-03     85.6740E-03
             822            1356     85.7556E-03     85.6740E-03
             827            1356     85.7556E-03     85.6740E-03
             829            1357     107.023E-03     109.502E-03
             828            1357     107.023E-03     109.502E-03
             823            1357     107.023E-03     109.502E-03
             824            1357     107.023E-03     109.502E-03
             825            1358     125.083E-03     127.258E-03
             829            1358     125.083E-03     127.258E-03
             830            1358     125.083E-03     127.258E-03
             824            1358     125.083E-03     127.258E-03
             827            1359     62.6575E-03     64.0168E-03
             831            1359     62.6575E-03     64.0168E-03
             832            1359     62.6575E-03     64.0168E-03
             826            1359     62.6575E-03     64.0168E-03
             832            1360     88.7174E-03     91.2526E-03
             833            1360     88.7174E-03     91.2526E-03
             828            1360     88.7174E-03     91.2526E-03
             827            1360     88.7174E-03     91.2526E-03
             828            1361     111.487E-03     119.492E-03
             834            1361     111.487E-03     119.492E-03
             829            1361     111.487E-03     119.492E-03
             833            1361     111.487E-03     119.492E-03
             830            1362     132.382E-03     140.510E-03
             829            1362     132.382E-03     140.510E-03
             834            1362     132.382E-03     140.510E-03
             835            1362     132.382E-03     140.510E-03
             831            1363     66.7599E-03     65.8565E-03
             837            1363     66.7599E-03     65.8565E-03
             836            1363     66.7599E-03     65.8565E-03
             832            1363     66.7599E-03     65.8565E-03
             837            1364     101.120E-03     95.1058E-03
             833            1364     101.120E-03     95.1058E-03
             832            1364     101.120E-03     95.1058E-03
             838            1364     101.120E-03     95.1058E-03
             838            1365     131.037E-03     127.585E-03
             839            1365     131.037E-03     127.585E-03
             834            1365     131.037E-03     127.585E-03
             833            1365     131.037E-03     127.585E-03
             834            1366     153.471E-03     151.608E-03
             835            1366     153.471E-03     151.608E-03
             839            1366     153.471E-03     151.608E-03
             840            1366     153.471E-03     151.608E-03
             836            1367     66.3885E-03     63.3293E-03
             842            1367     66.3885E-03     63.3293E-03
             837            1367     66.3885E-03     63.3293E-03
             841            1367     66.3885E-03     63.3293E-03
             837            1368     103.068E-03     97.7485E-03
             842            1368     103.068E-03     97.7485E-03
             838            1368     103.068E-03     97.7485E-03
             843            1368     103.068E-03     97.7485E-03
             844            1369     138.352E-03     135.994E-03
             838            1369     138.352E-03     135.994E-03
             843            1369     138.352E-03     135.994E-03
             839            1369     138.352E-03     135.994E-03
             845            1370     166.896E-03     165.131E-03
             839            1370     166.896E-03     165.131E-03
             840            1370     166.896E-03     165.131E-03
             844            1370     166.896E-03     165.131E-03
             847            1371     61.4399E-03     64.0522E-03
             846            1371     61.4399E-03     64.0522E-03
             841            1371     61.4399E-03     64.0522E-03
             842            1371     61.4399E-03     64.0522E-03
             842            1372     89.6221E-03     103.064E-03
             848            1372     89.6221E-03     103.064E-03
             847            1372     89.6221E-03     103.064E-03
             843            1372     89.6221E-03     103.064E-03
             848            1373     121.086E-03     147.769E-03
             844            1373     121.086E-03     147.769E-03
             849            1373     121.086E-03     147.769E-03
             843            1373     121.086E-03     147.769E-03
             849            1374     149.354E-03     173.431E-03
             845            1374     149.354E-03     173.431E-03
             850            1374     149.354E-03     173.431E-03
             844            1374     149.354E-03     173.431E-03
             852            1375     66.0037E-03     65.6594E-03
             846            1375     66.0037E-03     65.6594E-03
             847            1375     66.0037E-03     65.6594E-03
             851            1375     66.0037E-03     65.6594E-03
             848            1376     99.8595E-03     99.2926E-03
             852            1376     99.8595E-03     99.2926E-03
             847            1376     99.8595E-03     99.2926E-03
             853            1376     99.8595E-03     99.2926E-03
             854            1377     136.077E-03     137.283E-03
             848            1377     136.077E-03     137.283E-03
             849            1377     136.077E-03     137.283E-03
             853            1377     136.077E-03     137.283E-03
             850            1378     157.390E-03     156.264E-03
             849            1378     157.390E-03     156.264E-03
             854            1378     157.390E-03     156.264E-03
             855            1378     157.390E-03     156.264E-03
             851            1379     70.3266E-03     67.5993E-03
             852            1379     70.3266E-03     67.5993E-03
             857            1379     70.3266E-03     67.5993E-03
             856            1379     70.3266E-03     67.5993E-03
             853            1380     107.710E-03     102.610E-03
             857            1380     107.710E-03     102.610E-03
             858            1380     107.710E-03     102.610E-03
             852            1380     107.710E-03     102.610E-03
             853            1381     141.826E-03     136.496E-03
             854            1381     141.826E-03     136.496E-03
             859            1381     141.826E-03     136.496E-03
             858            1381     141.826E-03     136.496E-03
             859            1382     163.528E-03     157.884E-03
             855            1382     163.528E-03     157.884E-03
             854            1382     163.528E-03     157.884E-03
             860            1382     163.528E-03     157.884E-03
             856            1383     69.5474E-03     72.5571E-03
             862            1383     69.5474E-03     72.5571E-03
             857            1383     69.5474E-03     72.5571E-03
             861            1383     69.5474E-03     72.5571E-03
             858            1384     104.160E-03     112.189E-03
             857            1384     104.160E-03     112.189E-03
             863            1384     104.160E-03     112.189E-03
             862            1384     104.160E-03     112.189E-03
             858            1385     132.564E-03     149.396E-03
             864            1385     132.564E-03     149.396E-03
             859            1385     132.564E-03     149.396E-03
             863            1385     132.564E-03     149.396E-03
             859            1386     158.320E-03     174.780E-03
             864            1386     158.320E-03     174.780E-03
             860            1386     158.320E-03     174.780E-03
             865            1386     158.320E-03     174.780E-03
             861            1387     74.3408E-03     73.4780E-03
             862            1387     74.3408E-03     73.4780E-03
             867            1387     74.3408E-03     73.4780E-03
             866            1387     74.3408E-03     73.4780E-03
             867            1388     120.361E-03     112.049E-03
             862            1388     120.361E-03     112.049E-03
             868            1388     120.361E-03     112.049E-03
             863            1388     120.361E-03     112.049E-03
             869            1389     159.464E-03     151.461E-03
             868            1389     159.464E-03     151.461E-03
             863            1389     159.464E-03     151.461E-03
             864            1389     159.464E-03     151.461E-03
             865            1390     187.319E-03     180.995E-03
             864            1390     187.319E-03     180.995E-03
             870            1390     187.319E-03     180.995E-03
             869            1390     187.319E-03     180.995E-03
             867            1391     73.6010E-03     70.2727E-03
             866            1391     73.6010E-03     70.2727E-03
             871            1391     73.6010E-03     70.2727E-03
             872            1391     73.6010E-03     70.2727E-03
             872            1392     121.468E-03     115.455E-03
             873            1392     121.468E-03     115.455E-03
             868            1392     121.468E-03     115.455E-03
             867            1392     121.468E-03     115.455E-03
             869            1393     165.383E-03     163.341E-03
             868            1393     165.383E-03     163.341E-03
             873            1393     165.383E-03     163.341E-03
             874            1393     165.383E-03     163.341E-03
             869            1394     199.755E-03     198.951E-03
             870            1394     199.755E-03     198.951E-03
             875            1394     199.755E-03     198.951E-03
             874            1394     199.755E-03     198.951E-03
             872            1395     63.0933E-03     64.4720E-03
             876            1395     63.0933E-03     64.4720E-03
             871            1395     63.0933E-03     64.4720E-03
             877            1395     63.0933E-03     64.4720E-03
             872            1396     107.298E-03     116.674E-03
             878            1396     107.298E-03     116.674E-03
             877            1396     107.298E-03     116.674E-03
             873            1396     107.298E-03     116.674E-03
             873            1397     147.688E-03     167.168E-03
             878            1397     147.688E-03     167.168E-03
             874            1397     147.688E-03     167.168E-03
             879            1397     147.688E-03     167.168E-03
             880            1398     181.631E-03     201.602E-03
             875            1398     181.631E-03     201.602E-03
             874            1398     181.631E-03     201.602E-03
             879            1398     181.631E-03     201.602E-03
            1048            1491     42.0775E-03     52.5887E-03
            1049            1491     42.0775E-03     52.5887E-03
            1031            1491     42.0775E-03     52.5887E-03
            1032            1491     42.0775E-03     52.5887E-03
            1050            1492     37.0699E-03     31.8752E-03
            1033            1492     37.0699E-03     31.8752E-03
            1032            1492     37.0699E-03     31.8752E-03
            1049            1492     37.0699E-03     31.8752E-03
            1050            1493     50.8006E-03     38.4003E-03
            1034            1493     50.8006E-03     38.4003E-03
            1051            1493     50.8006E-03     38.4003E-03
            1033            1493     50.8006E-03     38.4003E-03
            1034            1494     63.3588E-03     50.3305E-03
            1051            1494     63.3588E-03     50.3305E-03
            1035            1494     63.3588E-03     50.3305E-03
            1052            1494     63.3588E-03     50.3305E-03
            1052            1495     76.3235E-03     63.7568E-03
            1036            1495     76.3235E-03     63.7568E-03
            1053            1495     76.3235E-03     63.7568E-03
            1035            1495     76.3235E-03     63.7568E-03
            1036            1496     89.3649E-03     77.6306E-03
            1037            1496     89.3649E-03     77.6306E-03
            1053            1496     89.3649E-03     77.6306E-03
            1054            1496     89.3649E-03     77.6306E-03
            1054            1497     102.531E-03     91.7619E-03
            1055            1497     102.531E-03     91.7619E-03
            1038            1497     102.531E-03     91.7619E-03
            1037            1497     102.531E-03     91.7619E-03
            1056            1498     115.745E-03     106.024E-03
            1055            1498     115.745E-03     106.024E-03
            1039            1498     115.745E-03     106.024E-03
            1038            1498     115.745E-03     106.024E-03
            1039            1499     128.980E-03     120.341E-03
            1040            1499     128.980E-03     120.341E-03
            1057            1499     128.980E-03     120.341E-03
            1056            1499     128.980E-03     120.341E-03
            1041            1500     142.147E-03     134.631E-03
            1057            1500     142.147E-03     134.631E-03
            1058            1500     142.147E-03     134.631E-03
            1040            1500     142.147E-03     134.631E-03
            1042            1501     155.316E-03     148.872E-03
            1041            1501     155.316E-03     148.872E-03
            1059            1501     155.316E-03     148.872E-03
            1058            1501     155.316E-03     148.872E-03
            1042            1502     168.298E-03     163.010E-03
            1059            1502     168.298E-03     163.010E-03
            1060            1502     168.298E-03     163.010E-03
            1043            1502     168.298E-03     163.010E-03
            1061            1503     181.294E-03     176.928E-03
            1043            1503     181.294E-03     176.928E-03
            1044            1503     181.294E-03     176.928E-03
            1060            1503     181.294E-03     176.928E-03
            1045            1504     193.718E-03     190.289E-03
            1061            1504     193.718E-03     190.289E-03
            1062            1504     193.718E-03     190.289E-03
            1044            1504     193.718E-03     190.289E-03
            1045            1505     204.086E-03     202.271E-03
            1046            1505     204.086E-03     202.271E-03
            1062            1505     204.086E-03     202.271E-03
            1063            1505     204.086E-03     202.271E-03
            1064            1506     211.960E-03     210.053E-03
            1046            1506     211.960E-03     210.053E-03
            1047            1506     211.960E-03     210.053E-03
            1063            1506     211.960E-03     210.053E-03
            1049            1507     42.3515E-03     37.5672E-03
            1066            1507     42.3515E-03     37.5672E-03
            1065            1507     42.3515E-03     37.5672E-03
            1048            1507     42.3515E-03     37.5672E-03
            1050            1508     30.0607E-03     30.1421E-03
            1066            1508     30.0607E-03     30.1421E-03
            1067            1508     30.0607E-03     30.1421E-03
            1049            1508     30.0607E-03     30.1421E-03
            1068            1509     41.3840E-03     39.5750E-03
            1050            1509     41.3840E-03     39.5750E-03
            1051            1509     41.3840E-03     39.5750E-03
            1067            1509     41.3840E-03     39.5750E-03
            1051            1510     54.8354E-03     53.1310E-03
            1052            1510     54.8354E-03     53.1310E-03
            1068            1510     54.8354E-03     53.1310E-03
            1069            1510     54.8354E-03     53.1310E-03
            1069            1511     68.6720E-03     67.2734E-03
            1052            1511     68.6720E-03     67.2734E-03
            1053            1511     68.6720E-03     67.2734E-03
            1070            1511     68.6720E-03     67.2734E-03
            1071            1512     82.5196E-03     81.4534E-03
            1053            1512     82.5196E-03     81.4534E-03
            1054            1512     82.5196E-03     81.4534E-03
            1070            1512     82.5196E-03     81.4534E-03
            1055            1513     96.4022E-03     95.6973E-03
            1071            1513     96.4022E-03     95.6973E-03
            1054            1513     96.4022E-03     95.6973E-03
            1072            1513     96.4022E-03     95.6973E-03
            1056            1514     110.365E-03     110.009E-03
            1055            1514     110.365E-03     110.009E-03
            1073            1514     110.365E-03     110.009E-03
            1072            1514     110.365E-03     110.009E-03
            1057            1515     124.362E-03     124.356E-03
            1056            1515     124.362E-03     124.356E-03
            1074            1515     124.362E-03     124.356E-03
            1073            1515     124.362E-03     124.356E-03
            1075            1516     138.431E-03     138.768E-03
            1074            1516     138.431E-03     138.768E-03
            1058            1516     138.431E-03     138.768E-03
            1057            1516     138.431E-03     138.768E-03
            1059            1517     152.553E-03     153.278E-03
            1058            1517     152.553E-03     153.278E-03
            1075            1517     152.553E-03     153.278E-03
            1076            1517     152.553E-03     153.278E-03
            1076            1518     166.855E-03     167.985E-03
            1077            1518     166.855E-03     167.985E-03
            1060            1518     166.855E-03     167.985E-03
            1059            1518     166.855E-03     167.985E-03
            1060            1519     181.170E-03     182.964E-03
            1078            1519     181.170E-03     182.964E-03
            1061            1519     181.170E-03     182.964E-03
            1077            1519     181.170E-03     182.964E-03
            1079            1520     196.153E-03     198.678E-03
            1062            1520     196.153E-03     198.678E-03
            1078            1520     196.153E-03     198.678E-03
            1061            1520     196.153E-03     198.678E-03
            1062            1521     210.971E-03     214.332E-03
            1063            1521     210.971E-03     214.332E-03
            1079            1521     210.971E-03     214.332E-03
            1080            1521     210.971E-03     214.332E-03
            1080            1522     222.774E-03     226.844E-03
            1064            1522     222.774E-03     226.844E-03
            1081            1522     222.774E-03     226.844E-03
            1063            1522     222.774E-03     226.844E-03
            1065            1523     37.2613E-03     36.9865E-03
            1082            1523     37.2613E-03     36.9865E-03
            1066            1523     37.2613E-03     36.9865E-03
            1083            1523     37.2613E-03     36.9865E-03
            1083            1524     25.0374E-03     35.2547E-03
            1066            1524     25.0374E-03     35.2547E-03
            1084            1524     25.0374E-03     35.2547E-03
            1067            1524     25.0374E-03     35.2547E-03
            1085            1525     33.0167E-03     44.2206E-03
            1067            1525     33.0167E-03     44.2206E-03
            1068            1525     33.0167E-03     44.2206E-03
            1084            1525     33.0167E-03     44.2206E-03
            1086            1526     47.4631E-03     57.8543E-03
            1068            1526     47.4631E-03     57.8543E-03
            1069            1526     47.4631E-03     57.8543E-03
            1085            1526     47.4631E-03     57.8543E-03
            1070            1527     61.8199E-03     71.9062E-03
            1087            1527     61.8199E-03     71.9062E-03
            1086            1527     61.8199E-03     71.9062E-03
            1069            1527     61.8199E-03     71.9062E-03
            1088            1528     76.2867E-03     86.0344E-03
            1087            1528     76.2867E-03     86.0344E-03
            1070            1528     76.2867E-03     86.0344E-03
            1071            1528     76.2867E-03     86.0344E-03
            1071            1529     90.7438E-03     100.130E-03
            1089            1529     90.7438E-03     100.130E-03
            1088            1529     90.7438E-03     100.130E-03
            1072            1529     90.7438E-03     100.130E-03
            1090            1530     105.200E-03     114.183E-03
            1072            1530     105.200E-03     114.183E-03
            1089            1530     105.200E-03     114.183E-03
            1073            1530     105.200E-03     114.183E-03
            1074            1531     119.669E-03     128.251E-03
            1090            1531     119.669E-03     128.251E-03
            1073            1531     119.669E-03     128.251E-03
            1091            1531     119.669E-03     128.251E-03
            1091            1532     134.186E-03     142.357E-03
            1074            1532     134.186E-03     142.357E-03
            1092            1532     134.186E-03     142.357E-03
            1075            1532     134.186E-03     142.357E-03
            1093            1533     148.729E-03     156.532E-03
            1092            1533     148.729E-03     156.532E-03
            1075            1533     148.729E-03     156.532E-03
            1076            1533     148.729E-03     156.532E-03
            1076            1534     163.399E-03     170.843E-03
            1093            1534     163.399E-03     170.843E-03
            1094            1534     163.399E-03     170.843E-03
            1077            1534     163.399E-03     170.843E-03
            1078            1535     178.170E-03     185.572E-03
            1094            1535     178.170E-03     185.572E-03
            1095            1535     178.170E-03     185.572E-03
            1077            1535     178.170E-03     185.572E-03
            1078            1536     193.395E-03     200.979E-03
            1079            1536     193.395E-03     200.979E-03
            1096            1536     193.395E-03     200.979E-03
            1095            1536     193.395E-03     200.979E-03
            1096            1537     211.673E-03     218.610E-03
            1079            1537     211.673E-03     218.610E-03
            1080            1537     211.673E-03     218.610E-03
            1097            1537     211.673E-03     218.610E-03
            1097            1538     230.365E-03     234.891E-03
            1080            1538     230.365E-03     234.891E-03
            1098            1538     230.365E-03     234.891E-03
            1081            1538     230.365E-03     234.891E-03
            1099            1539     28.1324E-03     49.9374E-03
            1100            1539     28.1324E-03     49.9374E-03
            1082            1539     28.1324E-03     49.9374E-03
            1083            1539     28.1324E-03     49.9374E-03
            1101            1540     18.4427E-03     43.1178E-03
            1084            1540     18.4427E-03     43.1178E-03
            1100            1540     18.4427E-03     43.1178E-03
            1083            1540     18.4427E-03     43.1178E-03
            1101            1541     27.6329E-03     51.8042E-03
            1084            1541     27.6329E-03     51.8042E-03
            1085            1541     27.6329E-03     51.8042E-03
            1102            1541     27.6329E-03     51.8042E-03
            1086            1542     41.4860E-03     64.3364E-03
            1085            1542     41.4860E-03     64.3364E-03
            1102            1542     41.4860E-03     64.3364E-03
            1103            1542     41.4860E-03     64.3364E-03
            1104            1543     56.0863E-03     77.8445E-03
            1087            1543     56.0863E-03     77.8445E-03
            1086            1543     56.0863E-03     77.8445E-03
            1103            1543     56.0863E-03     77.8445E-03
            1087            1544     70.8136E-03     91.4798E-03
            1105            1544     70.8136E-03     91.4798E-03
            1104            1544     70.8136E-03     91.4798E-03
            1088            1544     70.8136E-03     91.4798E-03
            1089            1545     85.5597E-03     105.065E-03
            1088            1545     85.5597E-03     105.065E-03
            1105            1545     85.5597E-03     105.065E-03
            1106            1545     85.5597E-03     105.065E-03
            1090            1546     100.213E-03     118.576E-03
            1107            1546     100.213E-03     118.576E-03
            1089            1546     100.213E-03     118.576E-03
            1106            1546     100.213E-03     118.576E-03
            1090            1547     114.840E-03     132.040E-03
            1108            1547     114.840E-03     132.040E-03
            1091            1547     114.840E-03     132.040E-03
            1107            1547     114.840E-03     132.040E-03
            1109            1548     129.355E-03     145.409E-03
            1108            1548     129.355E-03     145.409E-03
            1091            1548     129.355E-03     145.409E-03
            1092            1548     129.355E-03     145.409E-03
            1093            1549     143.844E-03     158.692E-03
            1092            1549     143.844E-03     158.692E-03
            1109            1549     143.844E-03     158.692E-03
            1110            1549     143.844E-03     158.692E-03
            1093            1550     158.120E-03     171.830E-03
            1110            1550     158.120E-03     171.830E-03
            1111            1550     158.120E-03     171.830E-03
            1094            1550     158.120E-03     171.830E-03
            1094            1551     172.607E-03     184.978E-03
            1112            1551     172.607E-03     184.978E-03
            1095            1551     172.607E-03     184.978E-03
            1111            1551     172.607E-03     184.978E-03
            1095            1552     187.202E-03     198.322E-03
            1113            1552     187.202E-03     198.322E-03
            1096            1552     187.202E-03     198.322E-03
            1112            1552     187.202E-03     198.322E-03
            1114            1553     204.208E-03     214.216E-03
            1097            1553     204.208E-03     214.216E-03
            1096            1553     204.208E-03     214.216E-03
            1113            1553     204.208E-03     214.216E-03
            1098            1554     229.127E-03     235.691E-03
            1097            1554     229.127E-03     235.691E-03
            1114            1554     229.127E-03     235.691E-03
            1115            1554     229.127E-03     235.691E-03
            1116            1555     8.27471E-03     9.73774E-03
            1117            1555     8.27471E-03     9.73774E-03
            1133            1555     8.27471E-03     9.73774E-03
            1134            1555     8.27471E-03     9.73774E-03
            1134            1556     6.95571E-03     6.57348E-03
            1135            1556     6.95571E-03     6.57348E-03
            1117            1556     6.95571E-03     6.57348E-03
            1118            1556     6.95571E-03     6.57348E-03
            1119            1557     5.69759E-03     5.89666E-03
            1118            1557     5.69759E-03     5.89666E-03
            1135            1557     5.69759E-03     5.89666E-03
            1136            1557     5.69759E-03     5.89666E-03
            1120            1558     5.70558E-03     5.79289E-03
            1136            1558     5.70558E-03     5.79289E-03
            1137            1558     5.70558E-03     5.79289E-03
            1119            1558     5.70558E-03     5.79289E-03
            1138            1559     5.45560E-03     5.58318E-03
            1120            1559     5.45560E-03     5.58318E-03
            1137            1559     5.45560E-03     5.58318E-03
            1121            1559     5.45560E-03     5.58318E-03
            1121            1560     5.31452E-03     5.42550E-03
            1138            1560     5.31452E-03     5.42550E-03
            1139            1560     5.31452E-03     5.42550E-03
            1122            1560     5.31452E-03     5.42550E-03
            1140            1561     5.16438E-03     5.27142E-03
            1123            1561     5.16438E-03     5.27142E-03
            1122            1561     5.16438E-03     5.27142E-03
            1139            1561     5.16438E-03     5.27142E-03
            1124            1562     5.04030E-03     5.13913E-03
            1123            1562     5.04030E-03     5.13913E-03
            1141            1562     5.04030E-03     5.13913E-03
            1140            1562     5.04030E-03     5.13913E-03
            1124            1563     4.93018E-03     5.02000E-03
            1125            1563     4.93018E-03     5.02000E-03
            1141            1563     4.93018E-03     5.02000E-03
            1142            1563     4.93018E-03     5.02000E-03
            1125            1564     4.83759E-03     4.91832E-03
            1126            1564     4.83759E-03     4.91832E-03
            1143            1564     4.83759E-03     4.91832E-03
            1142            1564     4.83759E-03     4.91832E-03
            1144            1565     4.75884E-03     4.82856E-03
            1126            1565     4.75884E-03     4.82856E-03
            1127            1565     4.75884E-03     4.82856E-03
            1143            1565     4.75884E-03     4.82856E-03
            1145            1566     4.69419E-03     4.75938E-03
            1127            1566     4.69419E-03     4.75938E-03
            1128            1566     4.69419E-03     4.75938E-03
            1144            1566     4.69419E-03     4.75938E-03
            1128            1567     4.64135E-03     4.67587E-03
            1146            1567     4.64135E-03     4.67587E-03
            1145            1567     4.64135E-03     4.67587E-03
            1129            1567     4.64135E-03     4.67587E-03
            1129            1568     4.59748E-03     4.70259E-03
            1146            1568     4.59748E-03     4.70259E-03
            1147            1568     4.59748E-03     4.70259E-03
            1130            1568     4.59748E-03     4.70259E-03
            1147            1569     4.60478E-03     4.37341E-03
            1131            1569     4.60478E-03     4.37341E-03
            1130            1569     4.60478E-03     4.37341E-03
            1148            1569     4.60478E-03     4.37341E-03
            1148            1570     4.80671E-03     5.42064E-03
            1149            1570     4.80671E-03     5.42064E-03
            1132            1570     4.80671E-03     5.42064E-03
            1131            1570     4.80671E-03     5.42064E-03
            1134            1571     12.9410E-03     14.6801E-03
            1133            1571     12.9410E-03     14.6801E-03
            1151            1571     12.9410E-03     14.6801E-03
            1150            1571     12.9410E-03     14.6801E-03
            1151            1572     12.6066E-03     13.3795E-03
            1134            1572     12.6066E-03     13.3795E-03
            1152            1572     12.6066E-03     13.3795E-03
            1135            1572     12.6066E-03     13.3795E-03
            1136            1573     12.9015E-03     14.2500E-03
            1153            1573     12.9015E-03     14.2500E-03
            1135            1573     12.9015E-03     14.2500E-03
            1152            1573     12.9015E-03     14.2500E-03
            1137            1574     12.9856E-03     14.1961E-03
            1136            1574     12.9856E-03     14.1961E-03
            1154            1574     12.9856E-03     14.1961E-03
            1153            1574     12.9856E-03     14.1961E-03
            1154            1575     12.5945E-03     13.8048E-03
            1155            1575     12.5945E-03     13.8048E-03
            1137            1575     12.5945E-03     13.8048E-03
            1138            1575     12.5945E-03     13.8048E-03
            1138            1576     12.0822E-03     13.1731E-03
            1155            1576     12.0822E-03     13.1731E-03
            1139            1576     12.0822E-03     13.1731E-03
            1156            1576     12.0822E-03     13.1731E-03
            1156            1577     11.4645E-03     12.4570E-03
            1140            1577     11.4645E-03     12.4570E-03
            1157            1577     11.4645E-03     12.4570E-03
            1139            1577     11.4645E-03     12.4570E-03
            1141            1578     10.8601E-03     11.7166E-03
            1140            1578     10.8601E-03     11.7166E-03
            1158            1578     10.8601E-03     11.7166E-03
            1157            1578     10.8601E-03     11.7166E-03
            1142            1579     10.2412E-03     10.9533E-03
            1159            1579     10.2412E-03     10.9533E-03
            1158            1579     10.2412E-03     10.9533E-03
            1141            1579     10.2412E-03     10.9533E-03
            1160            1580     9.65348E-03     10.2161E-03
            1143            1580     9.65348E-03     10.2161E-03
            1142            1580     9.65348E-03     10.2161E-03
            1159            1580     9.65348E-03     10.2161E-03
            1143            1581     9.07546E-03     9.48534E-03
            1160            1581     9.07546E-03     9.48534E-03
            1144            1581     9.07546E-03     9.48534E-03
            1161            1581     9.07546E-03     9.48534E-03
            1144            1582     8.54524E-03     8.81650E-03
            1145            1582     8.54524E-03     8.81650E-03
            1161            1582     8.54524E-03     8.81650E-03
            1162            1582     8.54524E-03     8.81650E-03
            1145            1583     8.02868E-03     8.18516E-03
            1146            1583     8.02868E-03     8.18516E-03
            1163            1583     8.02868E-03     8.18516E-03
            1162            1583     8.02868E-03     8.18516E-03
            1147            1584     7.59077E-03     7.71948E-03
            1164            1584     7.59077E-03     7.71948E-03
            1163            1584     7.59077E-03     7.71948E-03
            1146            1584     7.59077E-03     7.71948E-03
            1164            1585     7.17147E-03     7.29100E-03
            1147            1585     7.17147E-03     7.29100E-03
            1165            1585     7.17147E-03     7.29100E-03
            1148            1585     7.17147E-03     7.29100E-03
            1149            1586     6.77260E-03     8.34603E-03
            1166            1586     6.77260E-03     8.34603E-03
            1165            1586     6.77260E-03     8.34603E-03
            1148            1586     6.77260E-03     8.34603E-03
            1168            1587     19.8608E-03     18.9330E-03
            1167            1587     19.8608E-03     18.9330E-03
            1151            1587     19.8608E-03     18.9330E-03
            1150            1587     19.8608E-03     18.9330E-03
            1169            1588     21.9678E-03     19.5771E-03
            1168            1588     21.9678E-03     19.5771E-03
            1151            1588     21.9678E-03     19.5771E-03
            1152            1588     21.9678E-03     19.5771E-03
            1153            1589     23.7237E-03     21.1868E-03
            1170            1589     23.7237E-03     21.1868E-03
            1169            1589     23.7237E-03     21.1868E-03
            1152            1589     23.7237E-03     21.1868E-03
            1154            1590     23.5318E-03     21.0086E-03
            1153            1590     23.5318E-03     21.0086E-03
            1170            1590     23.5318E-03     21.0086E-03
            1171            1590     23.5318E-03     21.0086E-03
            1154            1591     22.6062E-03     20.1098E-03
            1171            1591     22.6062E-03     20.1098E-03
            1172            1591     22.6062E-03     20.1098E-03
            1155            1591     22.6062E-03     20.1098E-03
            1156            1592     21.3414E-03     18.9151E-03
            1172            1592     21.3414E-03     18.9151E-03
            1173            1592     21.3414E-03     18.9151E-03
            1155            1592     21.3414E-03     18.9151E-03
            1157            1593     20.0321E-03     17.6226E-03
            1173            1593     20.0321E-03     17.6226E-03
            1174            1593     20.0321E-03     17.6226E-03
            1156            1593     20.0321E-03     17.6226E-03
            1158            1594     18.6796E-03     16.3129E-03
            1157            1594     18.6796E-03     16.3129E-03
            1175            1594     18.6796E-03     16.3129E-03
            1174            1594     18.6796E-03     16.3129E-03
            1158            1595     17.3466E-03     15.0108E-03
            1176            1595     17.3466E-03     15.0108E-03
            1175            1595     17.3466E-03     15.0108E-03
            1159            1595     17.3466E-03     15.0108E-03
            1160            1596     16.0264E-03     13.7386E-03
            1176            1596     16.0264E-03     13.7386E-03
            1177            1596     16.0264E-03     13.7386E-03
            1159            1596     16.0264E-03     13.7386E-03
            1177            1597     14.7327E-03     12.5069E-03
            1161            1597     14.7327E-03     12.5069E-03
            1160            1597     14.7327E-03     12.5069E-03
            1178            1597     14.7327E-03     12.5069E-03
            1162            1598     13.4814E-03     11.3497E-03
            1178            1598     13.4814E-03     11.3497E-03
            1179            1598     13.4814E-03     11.3497E-03
            1161            1598     13.4814E-03     11.3497E-03
            1180            1599     12.2887E-03     10.2946E-03
            1179            1599     12.2887E-03     10.2946E-03
            1162            1599     12.2887E-03     10.2946E-03
            1163            1599     12.2887E-03     10.2946E-03
            1163            1600     11.1365E-03     9.44017E-03
            1164            1600     11.1365E-03     9.44017E-03
            1181            1600     11.1365E-03     9.44017E-03
            1180            1600     11.1365E-03     9.44017E-03
            1181            1601     9.95704E-03     9.05386E-03
            1182            1601     9.95704E-03     9.05386E-03
            1164            1601     9.95704E-03     9.05386E-03
            1165            1601     9.95704E-03     9.05386E-03
            1183            1602     9.45965E-03     10.1776E-03
            1165            1602     9.45965E-03     10.1776E-03
            1182            1602     9.45965E-03     10.1776E-03
            1166            1602     9.45965E-03     10.1776E-03
            1184            1603     24.5642E-03     24.3528E-03
            1167            1603     24.5642E-03     24.3528E-03
            1185            1603     24.5642E-03     24.3528E-03
            1168            1603     24.5642E-03     24.3528E-03
            1186            1604     23.5123E-03     23.3790E-03
            1185            1604     23.5123E-03     23.3790E-03
            1168            1604     23.5123E-03     23.3790E-03
            1169            1604     23.5123E-03     23.3790E-03
            1186            1605     24.7211E-03     23.9174E-03
            1187            1605     24.7211E-03     23.9174E-03
            1169            1605     24.7211E-03     23.9174E-03
            1170            1605     24.7211E-03     23.9174E-03
            1187            1606     23.8333E-03     22.8852E-03
            1188            1606     23.8333E-03     22.8852E-03
            1170            1606     23.8333E-03     22.8852E-03
            1171            1606     23.8333E-03     22.8852E-03
            1188            1607     22.3874E-03     21.4462E-03
            1189            1607     22.3874E-03     21.4462E-03
            1171            1607     22.3874E-03     21.4462E-03
            1172            1607     22.3874E-03     21.4462E-03
            1173            1608     20.8841E-03     19.9252E-03
            1189            1608     20.8841E-03     19.9252E-03
            1190            1608     20.8841E-03     19.9252E-03
            1172            1608     20.8841E-03     19.9252E-03
            1190            1609     19.3669E-03     18.4185E-03
            1191            1609     19.3669E-03     18.4185E-03
            1173            1609     19.3669E-03     18.4185E-03
            1174            1609     19.3669E-03     18.4185E-03
            1175            1610     17.9038E-03     16.9561E-03
            1191            1610     17.9038E-03     16.9561E-03
            1192            1610     17.9038E-03     16.9561E-03
            1174            1610     17.9038E-03     16.9561E-03
            1176            1611     16.4746E-03     15.5369E-03
            1192            1611     16.4746E-03     15.5369E-03
            1193            1611     16.4746E-03     15.5369E-03
            1175            1611     16.4746E-03     15.5369E-03
            1193            1612     15.0771E-03     14.1511E-03
            1194            1612     15.0771E-03     14.1511E-03
            1176            1612     15.0771E-03     14.1511E-03
            1177            1612     15.0771E-03     14.1511E-03
            1178            1613     13.7207E-03     12.8039E-03
            1194            1613     13.7207E-03     12.8039E-03
            1195            1613     13.7207E-03     12.8039E-03
            1177            1613     13.7207E-03     12.8039E-03
            1179            1614     12.3849E-03     11.4993E-03
            1195            1614     12.3849E-03     11.4993E-03
            1196            1614     12.3849E-03     11.4993E-03
            1178            1614     12.3849E-03     11.4993E-03
            1196            1615     11.1240E-03     10.2802E-03
            1197            1615     11.1240E-03     10.2802E-03
            1180            1615     11.1240E-03     10.2802E-03
            1179            1615     11.1240E-03     10.2802E-03
            1180            1616     9.92514E-03     9.22034E-03
            1197            1616     9.92514E-03     9.22034E-03
            1181            1616     9.92514E-03     9.22034E-03
            1198            1616     9.92514E-03     9.22034E-03
            1181            1617     8.86303E-03     8.68108E-03
            1199            1617     8.86303E-03     8.68108E-03
            1198            1617     8.86303E-03     8.68108E-03
            1182            1617     8.86303E-03     8.68108E-03
            1200            1618     9.37340E-03     9.02687E-03
            1182            1618     9.37340E-03     9.02687E-03
            1199            1618     9.37340E-03     9.02687E-03
            1183            1618     9.37340E-03     9.02687E-03
            1201            1619     30.3870E-03     30.8319E-03
            1184            1619     30.3870E-03     30.8319E-03
            1185            1619     30.3870E-03     30.8319E-03
            1202            1619     30.3870E-03     30.8319E-03
            1185            1620     26.3987E-03     27.0930E-03
            1203            1620     26.3987E-03     27.0930E-03
            1202            1620     26.3987E-03     27.0930E-03
            1186            1620     26.3987E-03     27.0930E-03
            1186            1621     24.7661E-03     25.4885E-03
            1203            1621     24.7661E-03     25.4885E-03
            1204            1621     24.7661E-03     25.4885E-03
            1187            1621     24.7661E-03     25.4885E-03
            1205            1622     23.2181E-03     23.8377E-03
            1204            1622     23.2181E-03     23.8377E-03
            1188            1622     23.2181E-03     23.8377E-03
            1187            1622     23.2181E-03     23.8377E-03
            1188            1623     21.6354E-03     22.2064E-03
            1205            1623     21.6354E-03     22.2064E-03
            1189            1623     21.6354E-03     22.2064E-03
            1206            1623     21.6354E-03     22.2064E-03
            1190            1624     20.0651E-03     20.5928E-03
            1189            1624     20.0651E-03     20.5928E-03
            1207            1624     20.0651E-03     20.5928E-03
            1206            1624     20.0651E-03     20.5928E-03
            1191            1625     18.5183E-03     19.0400E-03
            1207            1625     18.5183E-03     19.0400E-03
            1208            1625     18.5183E-03     19.0400E-03
            1190            1625     18.5183E-03     19.0400E-03
            1209            1626     17.0161E-03     17.5297E-03
            1192            1626     17.0161E-03     17.5297E-03
            1191            1626     17.0161E-03     17.5297E-03
            1208            1626     17.0161E-03     17.5297E-03
            1210            1627     15.5373E-03     16.0487E-03
            1209            1627     15.5373E-03     16.0487E-03
            1192            1627     15.5373E-03     16.0487E-03
            1193            1627     15.5373E-03     16.0487E-03
            1193            1628     14.0898E-03     14.5941E-03
            1211            1628     14.0898E-03     14.5941E-03
            1210            1628     14.0898E-03     14.5941E-03
            1194            1628     14.0898E-03     14.5941E-03
            1194            1629     12.6553E-03     13.1555E-03
            1211            1629     12.6553E-03     13.1555E-03
            1195            1629     12.6553E-03     13.1555E-03
            1212            1629     12.6553E-03     13.1555E-03
            1195            1630     11.2625E-03     11.7512E-03
            1213            1630     11.2625E-03     11.7512E-03
            1212            1630     11.2625E-03     11.7512E-03
            1196            1630     11.2625E-03     11.7512E-03
            1197            1631     9.89190E-03     10.3949E-03
            1196            1631     9.89190E-03     10.3949E-03
            1213            1631     9.89190E-03     10.3949E-03
            1214            1631     9.89190E-03     10.3949E-03
            1215            1632     8.70166E-03     9.25034E-03
            1197            1632     8.70166E-03     9.25034E-03
            1198            1632     8.70166E-03     9.25034E-03
            1214            1632     8.70166E-03     9.25034E-03
            1198            1633     8.26791E-03     8.43503E-03
            1215            1633     8.26791E-03     8.43503E-03
            1216            1633     8.26791E-03     8.43503E-03
            1199            1633     8.26791E-03     8.43503E-03
            1217            1634     8.93445E-03     8.28684E-03
            1216            1634     8.93445E-03     8.28684E-03
            1199            1634     8.93445E-03     8.28684E-03
            1200            1634     8.93445E-03     8.28684E-03
            1201            1635     36.2706E-03     36.5457E-03
            1218            1635     36.2706E-03     36.5457E-03
            1219            1635     36.2706E-03     36.5457E-03
            1202            1635     36.2706E-03     36.5457E-03
            1219            1636     28.4815E-03     29.9790E-03
            1203            1636     28.4815E-03     29.9790E-03
            1202            1636     28.4815E-03     29.9790E-03
            1220            1636     28.4815E-03     29.9790E-03
            1204            1637     24.0517E-03     26.1979E-03
            1220            1637     24.0517E-03     26.1979E-03
            1221            1637     24.0517E-03     26.1979E-03
            1203            1637     24.0517E-03     26.1979E-03
            1221            1638     22.0849E-03     24.1842E-03
            1222            1638     22.0849E-03     24.1842E-03
            1205            1638     22.0849E-03     24.1842E-03
            1204            1638     22.0849E-03     24.1842E-03
            1205            1639     20.4988E-03     22.5199E-03
            1223            1639     20.4988E-03     22.5199E-03
            1206            1639     20.4988E-03     22.5199E-03
            1222            1639     20.4988E-03     22.5199E-03
            1223            1640     18.9702E-03     20.9883E-03
            1206            1640     18.9702E-03     20.9883E-03
            1207            1640     18.9702E-03     20.9883E-03
            1224            1640     18.9702E-03     20.9883E-03
            1225            1641     17.4998E-03     19.4994E-03
            1208            1641     17.4998E-03     19.4994E-03
            1224            1641     17.4998E-03     19.4994E-03
            1207            1641     17.4998E-03     19.4994E-03
            1225            1642     16.0094E-03     18.0143E-03
            1209            1642     16.0094E-03     18.0143E-03
            1208            1642     16.0094E-03     18.0143E-03
            1226            1642     16.0094E-03     18.0143E-03
            1210            1643     14.5324E-03     16.5338E-03
            1209            1643     14.5324E-03     16.5338E-03
            1227            1643     14.5324E-03     16.5338E-03
            1226            1643     14.5324E-03     16.5338E-03
            1227            1644     13.0522E-03     15.0476E-03
            1228            1644     13.0522E-03     15.0476E-03
            1211            1644     13.0522E-03     15.0476E-03
            1210            1644     13.0522E-03     15.0476E-03
            1228            1645     11.5835E-03     13.5697E-03
            1211            1645     11.5835E-03     13.5697E-03
            1229            1645     11.5835E-03     13.5697E-03
            1212            1645     11.5835E-03     13.5697E-03
            1230            1646     10.1285E-03     12.1007E-03
            1213            1646     10.1285E-03     12.1007E-03
            1212            1646     10.1285E-03     12.1007E-03
            1229            1646     10.1285E-03     12.1007E-03
            1213            1647     8.74101E-03     10.6935E-03
            1214            1647     8.74101E-03     10.6935E-03
            1231            1647     8.74101E-03     10.6935E-03
            1230            1647     8.74101E-03     10.6935E-03
            1214            1648     7.52790E-03     9.43843E-03
            1231            1648     7.52790E-03     9.43843E-03
            1232            1648     7.52790E-03     9.43843E-03
            1215            1648     7.52790E-03     9.43843E-03
            1215            1649     7.17693E-03     8.59630E-03
            1232            1649     7.17693E-03     8.59630E-03
            1233            1649     7.17693E-03     8.59630E-03
            1216            1649     7.17693E-03     8.59630E-03
            1233            1650     8.36604E-03     8.53346E-03
            1216            1650     8.36604E-03     8.53346E-03
            1217            1650     8.36604E-03     8.53346E-03
            1234            1650     8.36604E-03     8.53346E-03
            1236            1651     39.2641E-03     42.0688E-03
            1219            1651     39.2641E-03     42.0688E-03
            1235            1651     39.2641E-03     42.0688E-03
            1218            1651     39.2641E-03     42.0688E-03
            1237            1652     27.9754E-03     31.4152E-03
            1220            1652     27.9754E-03     31.4152E-03
            1236            1652     27.9754E-03     31.4152E-03
            1219            1652     27.9754E-03     31.4152E-03
            1237            1653     23.3526E-03     26.7496E-03
            1220            1653     23.3526E-03     26.7496E-03
            1221            1653     23.3526E-03     26.7496E-03
            1238            1653     23.3526E-03     26.7496E-03
            1221            1654     20.9735E-03     24.4266E-03
            1238            1654     20.9735E-03     24.4266E-03
            1222            1654     20.9735E-03     24.4266E-03
            1239            1654     20.9735E-03     24.4266E-03
            1223            1655     19.2740E-03     22.7543E-03
            1240            1655     19.2740E-03     22.7543E-03
            1222            1655     19.2740E-03     22.7543E-03
            1239            1655     19.2740E-03     22.7543E-03
            1224            1656     17.8254E-03     21.3174E-03
            1223            1656     17.8254E-03     21.3174E-03
            1241            1656     17.8254E-03     21.3174E-03
            1240            1656     17.8254E-03     21.3174E-03
            1241            1657     16.3796E-03     19.8928E-03
            1242            1657     16.3796E-03     19.8928E-03
            1224            1657     16.3796E-03     19.8928E-03
            1225            1657     16.3796E-03     19.8928E-03
            1226            1658     14.9417E-03     18.4609E-03
            1242            1658     14.9417E-03     18.4609E-03
            1243            1658     14.9417E-03     18.4609E-03
            1225            1658     14.9417E-03     18.4609E-03
            1226            1659     13.4728E-03     16.9984E-03
            1243            1659     13.4728E-03     16.9984E-03
            1227            1659     13.4728E-03     16.9984E-03
            1244            1659     13.4728E-03     16.9984E-03
            1227            1660     11.9931E-03     15.5255E-03
            1245            1660     11.9931E-03     15.5255E-03
            1228            1660     11.9931E-03     15.5255E-03
            1244            1660     11.9931E-03     15.5255E-03
            1228            1661     10.5130E-03     14.0400E-03
            1245            1661     10.5130E-03     14.0400E-03
            1246            1661     10.5130E-03     14.0400E-03
            1229            1661     10.5130E-03     14.0400E-03
            1229            1662     9.04413E-03     12.5639E-03
            1230            1662     9.04413E-03     12.5639E-03
            1246            1662     9.04413E-03     12.5639E-03
            1247            1662     9.04413E-03     12.5639E-03
            1231            1663     7.66082E-03     11.1465E-03
            1230            1663     7.66082E-03     11.1465E-03
            1247            1663     7.66082E-03     11.1465E-03
            1248            1663     7.66082E-03     11.1465E-03
            1231            1664     6.50104E-03     9.84958E-03
            1248            1664     6.50104E-03     9.84958E-03
            1249            1664     6.50104E-03     9.84958E-03
            1232            1664     6.50104E-03     9.84958E-03
            1232            1665     5.73538E-03     9.06005E-03
            1233            1665     5.73538E-03     9.06005E-03
            1250            1665     5.73538E-03     9.06005E-03
            1249            1665     5.73538E-03     9.06005E-03
            1234            1666     6.83437E-03     9.61541E-03
            1251            1666     6.83437E-03     9.61541E-03
            1233            1666     6.83437E-03     9.61541E-03
            1250            1666     6.83437E-03     9.61541E-03
            1235            1667     42.8057E-03     43.9007E-03
            1236            1667     42.8057E-03     43.9007E-03
            1252            1667     42.8057E-03     43.9007E-03
            1253            1667     42.8057E-03     43.9007E-03
            1237            1668     39.0941E-03     39.4100E-03
            1254            1668     39.0941E-03     39.4100E-03
            1253            1668     39.0941E-03     39.4100E-03
            1236            1668     39.0941E-03     39.4100E-03
            1254            1669     37.2073E-03     37.6174E-03
            1237            1669     37.2073E-03     37.6174E-03
            1255            1669     37.2073E-03     37.6174E-03
            1238            1669     37.2073E-03     37.6174E-03
            1238            1670     35.3500E-03     36.0055E-03
            1239            1670     35.3500E-03     36.0055E-03
            1255            1670     35.3500E-03     36.0055E-03
            1256            1670     35.3500E-03     36.0055E-03
            1239            1671     33.4889E-03     34.2765E-03
            1257            1671     33.4889E-03     34.2765E-03
            1240            1671     33.4889E-03     34.2765E-03
            1256            1671     33.4889E-03     34.2765E-03
            1241            1672     31.4983E-03     32.3994E-03
            1240            1672     31.4983E-03     32.3994E-03
            1258            1672     31.4983E-03     32.3994E-03
            1257            1672     31.4983E-03     32.3994E-03
            1259            1673     29.3989E-03     30.3419E-03
            1241            1673     29.3989E-03     30.3419E-03
            1258            1673     29.3989E-03     30.3419E-03
            1242            1673     29.3989E-03     30.3419E-03
            1259            1674     27.2142E-03     28.1961E-03
            1260            1674     27.2142E-03     28.1961E-03
            1243            1674     27.2142E-03     28.1961E-03
            1242            1674     27.2142E-03     28.1961E-03
            1260            1675     24.9862E-03     25.9931E-03
            1244            1675     24.9862E-03     25.9931E-03
            1243            1675     24.9862E-03     25.9931E-03
            1261            1675     24.9862E-03     25.9931E-03
            1245            1676     22.7340E-03     23.7641E-03
            1261            1676     22.7340E-03     23.7641E-03
            1262            1676     22.7340E-03     23.7641E-03
            1244            1676     22.7340E-03     23.7641E-03
            1245            1677     20.4806E-03     21.5482E-03
            1263            1677     20.4806E-03     21.5482E-03
            1262            1677     20.4806E-03     21.5482E-03
            1246            1677     20.4806E-03     21.5482E-03
            1264            1678     18.2728E-03     19.3600E-03
            1247            1678     18.2728E-03     19.3600E-03
            1263            1678     18.2728E-03     19.3600E-03
            1246            1678     18.2728E-03     19.3600E-03
            1264            1679     16.1428E-03     17.2658E-03
            1248            1679     16.1428E-03     17.2658E-03
            1247            1679     16.1428E-03     17.2658E-03
            1265            1679     16.1428E-03     17.2658E-03
            1265            1680     14.2359E-03     15.3476E-03
            1266            1680     14.2359E-03     15.3476E-03
            1249            1680     14.2359E-03     15.3476E-03
            1248            1680     14.2359E-03     15.3476E-03
            1266            1681     12.5846E-03     13.8931E-03
            1249            1681     12.5846E-03     13.8931E-03
            1267            1681     12.5846E-03     13.8931E-03
            1250            1681     12.5846E-03     13.8931E-03
            1250            1682     11.5248E-03     14.2426E-03
            1251            1682     11.5248E-03     14.2426E-03
            1268            1682     11.5248E-03     14.2426E-03
            1267            1682     11.5248E-03     14.2426E-03
            1270            1683     49.1359E-03     47.3370E-03
            1252            1683     49.1359E-03     47.3370E-03
            1253            1683     49.1359E-03     47.3370E-03
            1269            1683     49.1359E-03     47.3370E-03
            1254            1684     52.1329E-03     50.1398E-03
            1253            1684     52.1329E-03     50.1398E-03
            1270            1684     52.1329E-03     50.1398E-03
            1271            1684     52.1329E-03     50.1398E-03
            1271            1685     52.7860E-03     50.6526E-03
            1254            1685     52.7860E-03     50.6526E-03
            1272            1685     52.7860E-03     50.6526E-03
            1255            1685     52.7860E-03     50.6526E-03
            1255            1686     51.2811E-03     49.2883E-03
            1273            1686     51.2811E-03     49.2883E-03
            1272            1686     51.2811E-03     49.2883E-03
            1256            1686     51.2811E-03     49.2883E-03
            1274            1687     48.9455E-03     47.0403E-03
            1273            1687     48.9455E-03     47.0403E-03
            1257            1687     48.9455E-03     47.0403E-03
            1256            1687     48.9455E-03     47.0403E-03
            1274            1688     46.1010E-03     44.2622E-03
            1257            1688     46.1010E-03     44.2622E-03
            1275            1688     46.1010E-03     44.2622E-03
            1258            1688     46.1010E-03     44.2622E-03
            1258            1689     43.0600E-03     41.2862E-03
            1276            1689     43.0600E-03     41.2862E-03
            1275            1689     43.0600E-03     41.2862E-03
            1259            1689     43.0600E-03     41.2862E-03
            1277            1690     39.9433E-03     38.1904E-03
            1260            1690     39.9433E-03     38.1904E-03
            1259            1690     39.9433E-03     38.1904E-03
            1276            1690     39.9433E-03     38.1904E-03
            1260            1691     36.7948E-03     35.0742E-03
            1277            1691     36.7948E-03     35.0742E-03
            1278            1691     36.7948E-03     35.0742E-03
            1261            1691     36.7948E-03     35.0742E-03
            1262            1692     33.6556E-03     31.9543E-03
            1279            1692     33.6556E-03     31.9543E-03
            1278            1692     33.6556E-03     31.9543E-03
            1261            1692     33.6556E-03     31.9543E-03
            1262            1693     30.5456E-03     28.8763E-03
            1263            1693     30.5456E-03     28.8763E-03
            1279            1693     30.5456E-03     28.8763E-03
            1280            1693     30.5456E-03     28.8763E-03
            1280            1694     27.4883E-03     25.8612E-03
            1263            1694     27.4883E-03     25.8612E-03
            1281            1694     27.4883E-03     25.8612E-03
            1264            1694     27.4883E-03     25.8612E-03
            1265            1695     24.5086E-03     22.9602E-03
            1281            1695     24.5086E-03     22.9602E-03
            1282            1695     24.5086E-03     22.9602E-03
            1264            1695     24.5086E-03     22.9602E-03
            1265            1696     21.6350E-03     20.2738E-03
            1282            1696     21.6350E-03     20.2738E-03
            1266            1696     21.6350E-03     20.2738E-03
            1283            1696     21.6350E-03     20.2738E-03
            1284            1697     18.8323E-03     18.1532E-03
            1266            1697     18.8323E-03     18.1532E-03
            1283            1697     18.8323E-03     18.1532E-03
            1267            1697     18.8323E-03     18.1532E-03
            1285            1698     16.4347E-03     17.7094E-03
            1284            1698     16.4347E-03     17.7094E-03
            1267            1698     16.4347E-03     17.7094E-03
            1268            1698     16.4347E-03     17.7094E-03
            1287            1699     55.5213E-03     56.1570E-03
            1269            1699     55.5213E-03     56.1570E-03
            1270            1699     55.5213E-03     56.1570E-03
            1286            1699     55.5213E-03     56.1570E-03
            1271            1700     55.2359E-03     55.6512E-03
            1288            1700     55.2359E-03     55.6512E-03
            1287            1700     55.2359E-03     55.6512E-03
            1270            1700     55.2359E-03     55.6512E-03
            1289            1701     55.0613E-03     54.9685E-03
            1288            1701     55.0613E-03     54.9685E-03
            1272            1701     55.0613E-03     54.9685E-03
            1271            1701     55.0613E-03     54.9685E-03
            1273            1702     52.9144E-03     52.5003E-03
            1289            1702     52.9144E-03     52.5003E-03
            1290            1702     52.9144E-03     52.5003E-03
            1272            1702     52.9144E-03     52.5003E-03
            1273            1703     49.8670E-03     49.3350E-03
            1274            1703     49.8670E-03     49.3350E-03
            1290            1703     49.8670E-03     49.3350E-03
            1291            1703     49.8670E-03     49.3350E-03
            1291            1704     46.4845E-03     45.9348E-03
            1274            1704     46.4845E-03     45.9348E-03
            1275            1704     46.4845E-03     45.9348E-03
            1292            1704     46.4845E-03     45.9348E-03
            1276            1705     43.0651E-03     42.4889E-03
            1275            1705     43.0651E-03     42.4889E-03
            1292            1705     43.0651E-03     42.4889E-03
            1293            1705     43.0651E-03     42.4889E-03
            1276            1706     39.6387E-03     39.0653E-03
            1293            1706     39.6387E-03     39.0653E-03
            1294            1706     39.6387E-03     39.0653E-03
            1277            1706     39.6387E-03     39.0653E-03
            1278            1707     36.2619E-03     35.6783E-03
            1295            1707     36.2619E-03     35.6783E-03
            1277            1707     36.2619E-03     35.6783E-03
            1294            1707     36.2619E-03     35.6783E-03
            1296            1708     32.9262E-03     32.3434E-03
            1279            1708     32.9262E-03     32.3434E-03
            1278            1708     32.9262E-03     32.3434E-03
            1295            1708     32.9262E-03     32.3434E-03
            1297            1709     29.6418E-03     29.0523E-03
            1280            1709     29.6418E-03     29.0523E-03
            1296            1709     29.6418E-03     29.0523E-03
            1279            1709     29.6418E-03     29.0523E-03
            1297            1710     26.4081E-03     25.8369E-03
            1298            1710     26.4081E-03     25.8369E-03
            1281            1710     26.4081E-03     25.8369E-03
            1280            1710     26.4081E-03     25.8369E-03
            1298            1711     23.2291E-03     22.7247E-03
            1282            1711     23.2291E-03     22.7247E-03
            1281            1711     23.2291E-03     22.7247E-03
            1299            1711     23.2291E-03     22.7247E-03
            1299            1712     20.0346E-03     19.8189E-03
            1300            1712     20.0346E-03     19.8189E-03
            1282            1712     20.0346E-03     19.8189E-03
            1283            1712     20.0346E-03     19.8189E-03
            1300            1713     16.8663E-03     17.5373E-03
            1283            1713     16.8663E-03     17.5373E-03
            1301            1713     16.8663E-03     17.5373E-03
            1284            1713     16.8663E-03     17.5373E-03
            1301            1714     14.9504E-03     15.9428E-03
            1285            1714     14.9504E-03     15.9428E-03
            1302            1714     14.9504E-03     15.9428E-03
            1284            1714     14.9504E-03     15.9428E-03
            1287            1715     62.7292E-03     63.5974E-03
            1303            1715     62.7292E-03     63.5974E-03
            1286            1715     62.7292E-03     63.5974E-03
            1304            1715     62.7292E-03     63.5974E-03
            1304            1716     58.9956E-03     60.6330E-03
            1287            1716     58.9956E-03     60.6330E-03
            1305            1716     58.9956E-03     60.6330E-03
            1288            1716     58.9956E-03     60.6330E-03
            1305            1717     56.5873E-03     57.8872E-03
            1306            1717     56.5873E-03     57.8872E-03
            1288            1717     56.5873E-03     57.8872E-03
            1289            1717     56.5873E-03     57.8872E-03
            1306            1718     53.4788E-03     54.4446E-03
            1307            1718     53.4788E-03     54.4446E-03
            1289            1718     53.4788E-03     54.4446E-03
            1290            1718     53.4788E-03     54.4446E-03
            1307            1719     49.8385E-03     50.6686E-03
            1308            1719     49.8385E-03     50.6686E-03
            1291            1719     49.8385E-03     50.6686E-03
            1290            1719     49.8385E-03     50.6686E-03
            1292            1720     46.2482E-03     46.9543E-03
            1308            1720     46.2482E-03     46.9543E-03
            1309            1720     46.2482E-03     46.9543E-03
            1291            1720     46.2482E-03     46.9543E-03
            1310            1721     42.6252E-03     43.2780E-03
            1292            1721     42.6252E-03     43.2780E-03
            1293            1721     42.6252E-03     43.2780E-03
            1309            1721     42.6252E-03     43.2780E-03
            1293            1722     39.0725E-03     39.6898E-03
            1310            1722     39.0725E-03     39.6898E-03
            1311            1722     39.0725E-03     39.6898E-03
            1294            1722     39.0725E-03     39.6898E-03
            1295            1723     35.5612E-03     36.1610E-03
            1311            1723     35.5612E-03     36.1610E-03
            1294            1723     35.5612E-03     36.1610E-03
            1312            1723     35.5612E-03     36.1610E-03
            1312            1724     32.1010E-03     32.6833E-03
            1313            1724     32.1010E-03     32.6833E-03
            1295            1724     32.1010E-03     32.6833E-03
            1296            1724     32.1010E-03     32.6833E-03
            1296            1725     28.6842E-03     29.2590E-03
            1313            1725     28.6842E-03     29.2590E-03
            1314            1725     28.6842E-03     29.2590E-03
            1297            1725     28.6842E-03     29.2590E-03
            1315            1726     25.3010E-03     25.8893E-03
            1314            1726     25.3010E-03     25.8893E-03
            1297            1726     25.3010E-03     25.8893E-03
            1298            1726     25.3010E-03     25.8893E-03
            1298            1727     21.9799E-03     22.6301E-03
            1315            1727     21.9799E-03     22.6301E-03
            1316            1727     21.9799E-03     22.6301E-03
            1299            1727     21.9799E-03     22.6301E-03
            1300            1728     18.6800E-03     19.6073E-03
            1299            1728     18.6800E-03     19.6073E-03
            1316            1728     18.6800E-03     19.6073E-03
            1317            1728     18.6800E-03     19.6073E-03
            1318            1729     15.6800E-03     16.8457E-03
            1300            1729     15.6800E-03     16.8457E-03
            1301            1729     15.6800E-03     16.8457E-03
            1317            1729     15.6800E-03     16.8457E-03
            1318            1730     13.7847E-03     14.3226E-03
            1319            1730     13.7847E-03     14.3226E-03
            1302            1730     13.7847E-03     14.3226E-03
            1301            1730     13.7847E-03     14.3226E-03
            1320            1731     68.9934E-03     70.6802E-03
            1321            1731     68.9934E-03     70.6802E-03
            1303            1731     68.9934E-03     70.6802E-03
            1304            1731     68.9934E-03     70.6802E-03
            1304            1732     62.8503E-03     64.6379E-03
            1305            1732     62.8503E-03     64.6379E-03
            1322            1732     62.8503E-03     64.6379E-03
            1321            1732     62.8503E-03     64.6379E-03
            1305            1733     57.3774E-03     59.5186E-03
            1322            1733     57.3774E-03     59.5186E-03
            1306            1733     57.3774E-03     59.5186E-03
            1323            1733     57.3774E-03     59.5186E-03
            1306            1734     52.8430E-03     55.0370E-03
            1307            1734     52.8430E-03     55.0370E-03
            1323            1734     52.8430E-03     55.0370E-03
            1324            1734     52.8430E-03     55.0370E-03
            1307            1735     49.0514E-03     51.0734E-03
            1324            1735     49.0514E-03     51.0734E-03
            1325            1735     49.0514E-03     51.0734E-03
            1308            1735     49.0514E-03     51.0734E-03
            1309            1736     45.3423E-03     47.2548E-03
            1325            1736     45.3423E-03     47.2548E-03
            1308            1736     45.3423E-03     47.2548E-03
            1326            1736     45.3423E-03     47.2548E-03
            1309            1737     41.7453E-03     43.5994E-03
            1310            1737     41.7453E-03     43.5994E-03
            1326            1737     41.7453E-03     43.5994E-03
            1327            1737     41.7453E-03     43.5994E-03
            1327            1738     38.1834E-03     40.0019E-03
            1328            1738     38.1834E-03     40.0019E-03
            1311            1738     38.1834E-03     40.0019E-03
            1310            1738     38.1834E-03     40.0019E-03
            1329            1739     34.6521E-03     36.4554E-03
            1311            1739     34.6521E-03     36.4554E-03
            1312            1739     34.6521E-03     36.4554E-03
            1328            1739     34.6521E-03     36.4554E-03
            1330            1740     31.1442E-03     32.9359E-03
            1329            1740     31.1442E-03     32.9359E-03
            1312            1740     31.1442E-03     32.9359E-03
            1313            1740     31.1442E-03     32.9359E-03
            1331            1741     27.6563E-03     29.4441E-03
            1330            1741     27.6563E-03     29.4441E-03
            1313            1741     27.6563E-03     29.4441E-03
            1314            1741     27.6563E-03     29.4441E-03
            1314            1742     24.2066E-03     25.9997E-03
            1331            1742     24.2066E-03     25.9997E-03
            1332            1742     24.2066E-03     25.9997E-03
            1315            1742     24.2066E-03     25.9997E-03
            1315            1743     20.7790E-03     22.6368E-03
            1316            1743     20.7790E-03     22.6368E-03
            1332            1743     20.7790E-03     22.6368E-03
            1333            1743     20.7790E-03     22.6368E-03
            1333            1744     17.6009E-03     19.5055E-03
            1317            1744     17.6009E-03     19.5055E-03
            1316            1744     17.6009E-03     19.5055E-03
            1334            1744     17.6009E-03     19.5055E-03
            1317            1745     14.8650E-03     16.4813E-03
            1335            1745     14.8650E-03     16.4813E-03
            1318            1745     14.8650E-03     16.4813E-03
            1334            1745     14.8650E-03     16.4813E-03
            1336            1746     12.7500E-03     13.9839E-03
            1318            1746     12.7500E-03     13.9839E-03
            1319            1746     12.7500E-03     13.9839E-03
            1335            1746     12.7500E-03     13.9839E-03
            1320            1747     75.1870E-03     76.1586E-03
            1337            1747     75.1870E-03     76.1586E-03
            1321            1747     75.1870E-03     76.1586E-03
            1338            1747     75.1870E-03     76.1586E-03
            1321            1748     64.5844E-03     66.9270E-03
            1322            1748     64.5844E-03     66.9270E-03
            1338            1748     64.5844E-03     66.9270E-03
            1339            1748     64.5844E-03     66.9270E-03
            1340            1749     56.5579E-03     59.6496E-03
            1339            1749     56.5579E-03     59.6496E-03
            1323            1749     56.5579E-03     59.6496E-03
            1322            1749     56.5579E-03     59.6496E-03
            1324            1750     51.6355E-03     54.7791E-03
            1323            1750     51.6355E-03     54.7791E-03
            1340            1750     51.6355E-03     54.7791E-03
            1341            1750     51.6355E-03     54.7791E-03
            1324            1751     47.6652E-03     50.7440E-03
            1342            1751     47.6652E-03     50.7440E-03
            1341            1751     47.6652E-03     50.7440E-03
            1325            1751     47.6652E-03     50.7440E-03
            1342            1752     44.0363E-03     47.0863E-03
            1326            1752     44.0363E-03     47.0863E-03
            1343            1752     44.0363E-03     47.0863E-03
            1325            1752     44.0363E-03     47.0863E-03
            1327            1753     40.5365E-03     43.5591E-03
            1343            1753     40.5365E-03     43.5591E-03
            1326            1753     40.5365E-03     43.5591E-03
            1344            1753     40.5365E-03     43.5591E-03
            1344            1754     37.0528E-03     40.0784E-03
            1345            1754     37.0528E-03     40.0784E-03
            1328            1754     37.0528E-03     40.0784E-03
            1327            1754     37.0528E-03     40.0784E-03
            1328            1755     33.5743E-03     36.5992E-03
            1345            1755     33.5743E-03     36.5992E-03
            1346            1755     33.5743E-03     36.5992E-03
            1329            1755     33.5743E-03     36.5992E-03
            1330            1756     30.0861E-03     33.1160E-03
            1346            1756     30.0861E-03     33.1160E-03
            1329            1756     30.0861E-03     33.1160E-03
            1347            1756     30.0861E-03     33.1160E-03
            1347            1757     26.5989E-03     29.6298E-03
            1331            1757     26.5989E-03     29.6298E-03
            1330            1757     26.5989E-03     29.6298E-03
            1348            1757     26.5989E-03     29.6298E-03
            1331            1758     23.1297E-03     26.1642E-03
            1348            1758     23.1297E-03     26.1642E-03
            1349            1758     23.1297E-03     26.1642E-03
            1332            1758     23.1297E-03     26.1642E-03
            1332            1759     19.7356E-03     22.7760E-03
            1333            1759     19.7356E-03     22.7760E-03
            1350            1759     19.7356E-03     22.7760E-03
            1349            1759     19.7356E-03     22.7760E-03
            1333            1760     16.5458E-03     19.4869E-03
            1350            1760     16.5458E-03     19.4869E-03
            1334            1760     16.5458E-03     19.4869E-03
            1351            1760     16.5458E-03     19.4869E-03
            1334            1761     14.0674E-03     16.7470E-03
            1351            1761     14.0674E-03     16.7470E-03
            1352            1761     14.0674E-03     16.7470E-03
            1335            1761     14.0674E-03     16.7470E-03
            1336            1762     12.4353E-03     14.2579E-03
            1335            1762     12.4353E-03     14.2579E-03
            1352            1762     12.4353E-03     14.2579E-03
            1353            1762     12.4353E-03     14.2579E-03
            1337            1763     77.4866E-03     80.5915E-03
            1338            1763     77.4866E-03     80.5915E-03
            1354            1763     77.4866E-03     80.5915E-03
            1355            1763     77.4866E-03     80.5915E-03
            1356            1764     62.8635E-03     66.6950E-03
            1339            1764     62.8635E-03     66.6950E-03
            1338            1764     62.8635E-03     66.6950E-03
            1355            1764     62.8635E-03     66.6950E-03
            1339            1765     55.1157E-03     58.9482E-03
            1357            1765     55.1157E-03     58.9482E-03
            1356            1765     55.1157E-03     58.9482E-03
            1340            1765     55.1157E-03     58.9482E-03
            1358            1766     50.1599E-03     54.0948E-03
            1341            1766     50.1599E-03     54.0948E-03
            1340            1766     50.1599E-03     54.0948E-03
            1357            1766     50.1599E-03     54.0948E-03
            1342            1767     46.1156E-03     50.1800E-03
            1358            1767     46.1156E-03     50.1800E-03
            1359            1767     46.1156E-03     50.1800E-03
            1341            1767     46.1156E-03     50.1800E-03
            1359            1768     42.5949E-03     46.7341E-03
            1360            1768     42.5949E-03     46.7341E-03
            1343            1768     42.5949E-03     46.7341E-03
            1342            1768     42.5949E-03     46.7341E-03
            1360            1769     39.1794E-03     43.3804E-03
            1361            1769     39.1794E-03     43.3804E-03
            1344            1769     39.1794E-03     43.3804E-03
            1343            1769     39.1794E-03     43.3804E-03
            1344            1770     35.8120E-03     40.0488E-03
            1361            1770     35.8120E-03     40.0488E-03
            1345            1770     35.8120E-03     40.0488E-03
            1362            1770     35.8120E-03     40.0488E-03
            1362            1771     32.4180E-03     36.6831E-03
            1345            1771     32.4180E-03     36.6831E-03
            1346            1771     32.4180E-03     36.6831E-03
            1363            1771     32.4180E-03     36.6831E-03
            1347            1772     29.0003E-03     33.2863E-03
            1364            1772     29.0003E-03     33.2863E-03
            1363            1772     29.0003E-03     33.2863E-03
            1346            1772     29.0003E-03     33.2863E-03
            1347            1773     25.5690E-03     29.8668E-03
            1365            1773     25.5690E-03     29.8668E-03
            1364            1773     25.5690E-03     29.8668E-03
            1348            1773     25.5690E-03     29.8668E-03
            1366            1774     22.1418E-03     26.4427E-03
            1348            1774     22.1418E-03     26.4427E-03
            1365            1774     22.1418E-03     26.4427E-03
            1349            1774     22.1418E-03     26.4427E-03
            1367            1775     18.8261E-03     23.0636E-03
            1349            1775     18.8261E-03     23.0636E-03
            1350            1775     18.8261E-03     23.0636E-03
            1366            1775     18.8261E-03     23.0636E-03
            1368            1776     15.6631E-03     19.8090E-03
            1351            1776     15.6631E-03     19.8090E-03
            1350            1776     15.6631E-03     19.8090E-03
            1367            1776     15.6631E-03     19.8090E-03
            1369            1777     13.1482E-03     17.0413E-03
            1368            1777     13.1482E-03     17.0413E-03
            1352            1777     13.1482E-03     17.0413E-03
            1351            1777     13.1482E-03     17.0413E-03
            1352            1778     12.1692E-03     15.4536E-03
            1353            1778     12.1692E-03     15.4536E-03
            1370            1778     12.1692E-03     15.4536E-03
            1369            1778     12.1692E-03     15.4536E-03
            1371            1779     79.6550E-03     81.0896E-03
            1354            1779     79.6550E-03     81.0896E-03
            1372            1779     79.6550E-03     81.0896E-03
            1355            1779     79.6550E-03     81.0896E-03
            1355            1780     73.5441E-03     73.9363E-03
            1372            1780     73.5441E-03     73.9363E-03
            1356            1780     73.5441E-03     73.9363E-03
            1373            1780     73.5441E-03     73.9363E-03
            1373            1781     69.2928E-03     69.8281E-03
            1357            1781     69.2928E-03     69.8281E-03
            1356            1781     69.2928E-03     69.8281E-03
            1374            1781     69.2928E-03     69.8281E-03
            1358            1782     65.0389E-03     65.9423E-03
            1375            1782     65.0389E-03     65.9423E-03
            1357            1782     65.0389E-03     65.9423E-03
            1374            1782     65.0389E-03     65.9423E-03
            1359            1783     61.0055E-03     62.1051E-03
            1375            1783     61.0055E-03     62.1051E-03
            1376            1783     61.0055E-03     62.1051E-03
            1358            1783     61.0055E-03     62.1051E-03
            1376            1784     56.8962E-03     58.1579E-03
            1377            1784     56.8962E-03     58.1579E-03
            1360            1784     56.8962E-03     58.1579E-03
            1359            1784     56.8962E-03     58.1579E-03
            1378            1785     52.8006E-03     54.1177E-03
            1361            1785     52.8006E-03     54.1177E-03
            1377            1785     52.8006E-03     54.1177E-03
            1360            1785     52.8006E-03     54.1177E-03
            1379            1786     48.6477E-03     50.0192E-03
            1378            1786     48.6477E-03     50.0192E-03
            1362            1786     48.6477E-03     50.0192E-03
            1361            1786     48.6477E-03     50.0192E-03
            1380            1787     44.4623E-03     45.8382E-03
            1379            1787     44.4623E-03     45.8382E-03
            1362            1787     44.4623E-03     45.8382E-03
            1363            1787     44.4623E-03     45.8382E-03
            1363            1788     40.2375E-03     41.6504E-03
            1380            1788     40.2375E-03     41.6504E-03
            1381            1788     40.2375E-03     41.6504E-03
            1364            1788     40.2375E-03     41.6504E-03
            1364            1789     36.0074E-03     37.4329E-03
            1382            1789     36.0074E-03     37.4329E-03
            1365            1789     36.0074E-03     37.4329E-03
            1381            1789     36.0074E-03     37.4329E-03
            1383            1790     31.8151E-03     33.2692E-03
            1366            1790     31.8151E-03     33.2692E-03
            1382            1790     31.8151E-03     33.2692E-03
            1365            1790     31.8151E-03     33.2692E-03
            1366            1791     27.7040E-03     29.1561E-03
            1384            1791     27.7040E-03     29.1561E-03
            1367            1791     27.7040E-03     29.1561E-03
            1383            1791     27.7040E-03     29.1561E-03
            1385            1792     23.8483E-03     25.2341E-03
            1368            1792     23.8483E-03     25.2341E-03
            1384            1792     23.8483E-03     25.2341E-03
            1367            1792     23.8483E-03     25.2341E-03
            1386            1793     20.3768E-03     21.7456E-03
            1369            1793     20.3768E-03     21.7456E-03
            1368            1793     20.3768E-03     21.7456E-03
            1385            1793     20.3768E-03     21.7456E-03
            1369            1794     17.9785E-03     19.9409E-03
            1370            1794     17.9785E-03     19.9409E-03
            1387            1794     17.9785E-03     19.9409E-03
            1386            1794     17.9785E-03     19.9409E-03
            1371            1795     86.6247E-03     85.0833E-03
            1389            1795     86.6247E-03     85.0833E-03
            1372            1795     86.6247E-03     85.0833E-03
            1388            1795     86.6247E-03     85.0833E-03
            1389            1796     87.9029E-03     86.2391E-03
            1372            1796     87.9029E-03     86.2391E-03
            1390            1796     87.9029E-03     86.2391E-03
            1373            1796     87.9029E-03     86.2391E-03
            1390            1797     85.8267E-03     84.2513E-03
            1391            1797     85.8267E-03     84.2513E-03
            1373            1797     85.8267E-03     84.2513E-03
            1374            1797     85.8267E-03     84.2513E-03
            1391            1798     81.9448E-03     80.4254E-03
            1374            1798     81.9448E-03     80.4254E-03
            1375            1798     81.9448E-03     80.4254E-03
            1392            1798     81.9448E-03     80.4254E-03
            1393            1799     77.2159E-03     75.7871E-03
            1375            1799     77.2159E-03     75.7871E-03
            1376            1799     77.2159E-03     75.7871E-03
            1392            1799     77.2159E-03     75.7871E-03
            1393            1800     72.1642E-03     70.8236E-03
            1394            1800     72.1642E-03     70.8236E-03
            1376            1800     72.1642E-03     70.8236E-03
            1377            1800     72.1642E-03     70.8236E-03
            1377            1801     67.0450E-03     65.7042E-03
            1394            1801     67.0450E-03     65.7042E-03
            1395            1801     67.0450E-03     65.7042E-03
            1378            1801     67.0450E-03     65.7042E-03
            1395            1802     61.8551E-03     60.5350E-03
            1378            1802     61.8551E-03     60.5350E-03
            1396            1802     61.8551E-03     60.5350E-03
            1379            1802     61.8551E-03     60.5350E-03
            1396            1803     56.6687E-03     55.3380E-03
            1397            1803     56.6687E-03     55.3380E-03
            1380            1803     56.6687E-03     55.3380E-03
            1379            1803     56.6687E-03     55.3380E-03
            1397            1804     51.4746E-03     50.1490E-03
            1398            1804     51.4746E-03     50.1490E-03
            1381            1804     51.4746E-03     50.1490E-03
            1380            1804     51.4746E-03     50.1490E-03
            1381            1805     46.3108E-03     44.9900E-03
            1398            1805     46.3108E-03     44.9900E-03
            1399            1805     46.3108E-03     44.9900E-03
            1382            1805     46.3108E-03     44.9900E-03
            1399            1806     41.1971E-03     39.8913E-03
            1400            1806     41.1971E-03     39.8913E-03
            1382            1806     41.1971E-03     39.8913E-03
            1383            1806     41.1971E-03     39.8913E-03
            1400            1807     36.2019E-03     34.9233E-03
            1401            1807     36.2019E-03     34.9233E-03
            1383            1807     36.2019E-03     34.9233E-03
            1384            1807     36.2019E-03     34.9233E-03
            1384            1808     31.2939E-03     30.1125E-03
            1402            1808     31.2939E-03     30.1125E-03
            1401            1808     31.2939E-03     30.1125E-03
            1385            1808     31.2939E-03     30.1125E-03
            1402            1809     26.6209E-03     25.9048E-03
            1403            1809     26.6209E-03     25.9048E-03
            1385            1809     26.6209E-03     25.9048E-03
            1386            1809     26.6209E-03     25.9048E-03
            1403            1810     22.0146E-03     23.4056E-03
            1404            1810     22.0146E-03     23.4056E-03
            1387            1810     22.0146E-03     23.4056E-03
            1386            1810     22.0146E-03     23.4056E-03
            1406            1811     94.5143E-03     95.8709E-03
            1388            1811     94.5143E-03     95.8709E-03
            1405            1811     94.5143E-03     95.8709E-03
            1389            1811     94.5143E-03     95.8709E-03
            1407            1812     91.8645E-03     93.4911E-03
            1389            1812     91.8645E-03     93.4911E-03
            1390            1812     91.8645E-03     93.4911E-03
            1406            1812     91.8645E-03     93.4911E-03
            1391            1813     88.6093E-03     89.4250E-03
            1407            1813     88.6093E-03     89.4250E-03
            1390            1813     88.6093E-03     89.4250E-03
            1408            1813     88.6093E-03     89.4250E-03
            1392            1814     83.4409E-03     83.9367E-03
            1408            1814     83.4409E-03     83.9367E-03
            1409            1814     83.4409E-03     83.9367E-03
            1391            1814     83.4409E-03     83.9367E-03
            1393            1815     77.8321E-03     78.2338E-03
            1392            1815     77.8321E-03     78.2338E-03
            1409            1815     77.8321E-03     78.2338E-03
            1410            1815     77.8321E-03     78.2338E-03
            1411            1816     72.2740E-03     72.5909E-03
            1393            1816     72.2740E-03     72.5909E-03
            1394            1816     72.2740E-03     72.5909E-03
            1410            1816     72.2740E-03     72.5909E-03
            1411            1817     66.7111E-03     67.0143E-03
            1394            1817     66.7111E-03     67.0143E-03
            1412            1817     66.7111E-03     67.0143E-03
            1395            1817     66.7111E-03     67.0143E-03
            1413            1818     61.2280E-03     61.5097E-03
            1412            1818     61.2280E-03     61.5097E-03
            1396            1818     61.2280E-03     61.5097E-03
            1395            1818     61.2280E-03     61.5097E-03
            1396            1819     55.7833E-03     56.0589E-03
            1414            1819     55.7833E-03     56.0589E-03
            1413            1819     55.7833E-03     56.0589E-03
            1397            1819     55.7833E-03     56.0589E-03
            1414            1820     50.3860E-03     50.6453E-03
            1415            1820     50.3860E-03     50.6453E-03
            1397            1820     50.3860E-03     50.6453E-03
            1398            1820     50.3860E-03     50.6453E-03
            1399            1821     45.0417E-03     45.2762E-03
            1416            1821     45.0417E-03     45.2762E-03
            1415            1821     45.0417E-03     45.2762E-03
            1398            1821     45.0417E-03     45.2762E-03
            1416            1822     39.7346E-03     39.9534E-03
            1417            1822     39.7346E-03     39.9534E-03
            1399            1822     39.7346E-03     39.9534E-03
            1400            1822     39.7346E-03     39.9534E-03
            1401            1823     34.5174E-03     34.7493E-03
            1417            1823     34.5174E-03     34.7493E-03
            1418            1823     34.5174E-03     34.7493E-03
            1400            1823     34.5174E-03     34.7493E-03
            1402            1824     29.3141E-03     29.7399E-03
            1418            1824     29.3141E-03     29.7399E-03
            1401            1824     29.3141E-03     29.7399E-03
            1419            1824     29.3141E-03     29.7399E-03
            1419            1825     23.9223E-03     25.3413E-03
            1402            1825     23.9223E-03     25.3413E-03
            1420            1825     23.9223E-03     25.3413E-03
            1403            1825     23.9223E-03     25.3413E-03
            1403            1826     19.2149E-03     21.4948E-03
            1421            1826     19.2149E-03     21.4948E-03
            1404            1826     19.2149E-03     21.4948E-03
            1420            1826     19.2149E-03     21.4948E-03
            1422            1827     101.831E-03     104.554E-03
            1405            1827     101.831E-03     104.554E-03
            1423            1827     101.831E-03     104.554E-03
            1406            1827     101.831E-03     104.554E-03
            1424            1828     95.7374E-03     98.4463E-03
            1423            1828     95.7374E-03     98.4463E-03
            1407            1828     95.7374E-03     98.4463E-03
            1406            1828     95.7374E-03     98.4463E-03
            1425            1829     89.4087E-03     92.0025E-03
            1407            1829     89.4087E-03     92.0025E-03
            1424            1829     89.4087E-03     92.0025E-03
            1408            1829     89.4087E-03     92.0025E-03
            1425            1830     83.1459E-03     85.5183E-03
            1426            1830     83.1459E-03     85.5183E-03
            1409            1830     83.1459E-03     85.5183E-03
            1408            1830     83.1459E-03     85.5183E-03
            1410            1831     77.3352E-03     79.4450E-03
            1426            1831     77.3352E-03     79.4450E-03
            1409            1831     77.3352E-03     79.4450E-03
            1427            1831     77.3352E-03     79.4450E-03
            1428            1832     71.5766E-03     73.5638E-03
            1411            1832     71.5766E-03     73.5638E-03
            1427            1832     71.5766E-03     73.5638E-03
            1410            1832     71.5766E-03     73.5638E-03
            1411            1833     65.9183E-03     67.8552E-03
            1428            1833     65.9183E-03     67.8552E-03
            1412            1833     65.9183E-03     67.8552E-03
            1429            1833     65.9183E-03     67.8552E-03
            1412            1834     60.3128E-03     62.2331E-03
            1429            1834     60.3128E-03     62.2331E-03
            1413            1834     60.3128E-03     62.2331E-03
            1430            1834     60.3128E-03     62.2331E-03
            1431            1835     54.7566E-03     56.6661E-03
            1430            1835     54.7566E-03     56.6661E-03
            1413            1835     54.7566E-03     56.6661E-03
            1414            1835     54.7566E-03     56.6661E-03
            1414            1836     49.2436E-03     51.1406E-03
            1432            1836     49.2436E-03     51.1406E-03
            1415            1836     49.2436E-03     51.1406E-03
            1431            1836     49.2436E-03     51.1406E-03
            1415            1837     43.7594E-03     45.6347E-03
            1432            1837     43.7594E-03     45.6347E-03
            1433            1837     43.7594E-03     45.6347E-03
            1416            1837     43.7594E-03     45.6347E-03
            1434            1838     38.3278E-03     40.1881E-03
            1416            1838     38.3278E-03     40.1881E-03
            1417            1838     38.3278E-03     40.1881E-03
            1433            1838     38.3278E-03     40.1881E-03
            1434            1839     32.8952E-03     34.7796E-03
            1417            1839     32.8952E-03     34.7796E-03
            1418            1839     32.8952E-03     34.7796E-03
            1435            1839     32.8952E-03     34.7796E-03
            1435            1840     27.5528E-03     29.7231E-03
            1436            1840     27.5528E-03     29.7231E-03
            1418            1840     27.5528E-03     29.7231E-03
            1419            1840     27.5528E-03     29.7231E-03
            1419            1841     22.2912E-03     24.9302E-03
            1420            1841     22.2912E-03     24.9302E-03
            1437            1841     22.2912E-03     24.9302E-03
            1436            1841     22.2912E-03     24.9302E-03
            1420            1842     17.5968E-03     19.7299E-03
            1437            1842     17.5968E-03     19.7299E-03
            1438            1842     17.5968E-03     19.7299E-03
            1421            1842     17.5968E-03     19.7299E-03
            1439            1843     108.464E-03     110.127E-03
            1422            1843     108.464E-03     110.127E-03
            1423            1843     108.464E-03     110.127E-03
            1440            1843     108.464E-03     110.127E-03
            1441            1844     97.2445E-03     100.620E-03
            1423            1844     97.2445E-03     100.620E-03
            1424            1844     97.2445E-03     100.620E-03
            1440            1844     97.2445E-03     100.620E-03
            1441            1845     87.9392E-03     91.9341E-03
            1442            1845     87.9392E-03     91.9341E-03
            1424            1845     87.9392E-03     91.9341E-03
            1425            1845     87.9392E-03     91.9341E-03
            1443            1846     81.5663E-03     85.3783E-03
            1442            1846     81.5663E-03     85.3783E-03
            1426            1846     81.5663E-03     85.3783E-03
            1425            1846     81.5663E-03     85.3783E-03
            1427            1847     75.7724E-03     79.4138E-03
            1426            1847     75.7724E-03     79.4138E-03
            1443            1847     75.7724E-03     79.4138E-03
            1444            1847     75.7724E-03     79.4138E-03
            1444            1848     70.1552E-03     73.7437E-03
            1427            1848     70.1552E-03     73.7437E-03
            1428            1848     70.1552E-03     73.7437E-03
            1445            1848     70.1552E-03     73.7437E-03
            1446            1849     64.6125E-03     68.1748E-03
            1445            1849     64.6125E-03     68.1748E-03
            1429            1849     64.6125E-03     68.1748E-03
            1428            1849     64.6125E-03     68.1748E-03
            1446            1850     59.0687E-03     62.6364E-03
            1429            1850     59.0687E-03     62.6364E-03
            1447            1850     59.0687E-03     62.6364E-03
            1430            1850     59.0687E-03     62.6364E-03
            1430            1851     53.5364E-03     57.1122E-03
            1447            1851     53.5364E-03     57.1122E-03
            1448            1851     53.5364E-03     57.1122E-03
            1431            1851     53.5364E-03     57.1122E-03
            1432            1852     48.0082E-03     51.5816E-03
            1449            1852     48.0082E-03     51.5816E-03
            1448            1852     48.0082E-03     51.5816E-03
            1431            1852     48.0082E-03     51.5816E-03
            1450            1853     42.4867E-03     46.0609E-03
            1433            1853     42.4867E-03     46.0609E-03
            1449            1853     42.4867E-03     46.0609E-03
            1432            1853     42.4867E-03     46.0609E-03
            1451            1854     36.9785E-03     40.5406E-03
            1433            1854     36.9785E-03     40.5406E-03
            1434            1854     36.9785E-03     40.5406E-03
            1450            1854     36.9785E-03     40.5406E-03
            1452            1855     31.5047E-03     35.1008E-03
            1434            1855     31.5047E-03     35.1008E-03
            1451            1855     31.5047E-03     35.1008E-03
            1435            1855     31.5047E-03     35.1008E-03
            1436            1856     26.1022E-03     29.8047E-03
            1453            1856     26.1022E-03     29.8047E-03
            1452            1856     26.1022E-03     29.8047E-03
            1435            1856     26.1022E-03     29.8047E-03
            1436            1857     21.3675E-03     24.8769E-03
            1437            1857     21.3675E-03     24.8769E-03
            1453            1857     21.3675E-03     24.8769E-03
            1454            1857     21.3675E-03     24.8769E-03
            1454            1858     16.8891E-03     20.2341E-03
            1455            1858     16.8891E-03     20.2341E-03
            1438            1858     16.8891E-03     20.2341E-03
            1437            1858     16.8891E-03     20.2341E-03
            1439            1859     110.208E-03     113.802E-03
            1457            1859     110.208E-03     113.802E-03
            1440            1859     110.208E-03     113.802E-03
            1456            1859     110.208E-03     113.802E-03
            1457            1860     94.4370E-03     99.0724E-03
            1458            1860     94.4370E-03     99.0724E-03
            1441            1860     94.4370E-03     99.0724E-03
            1440            1860     94.4370E-03     99.0724E-03
            1441            1861     85.5038E-03     90.2814E-03
            1442            1861     85.5038E-03     90.2814E-03
            1459            1861     85.5038E-03     90.2814E-03
            1458            1861     85.5038E-03     90.2814E-03
            1460            1862     79.2131E-03     84.1421E-03
            1443            1862     79.2131E-03     84.1421E-03
            1459            1862     79.2131E-03     84.1421E-03
            1442            1862     79.2131E-03     84.1421E-03
            1443            1863     73.5783E-03     78.6525E-03
            1461            1863     73.5783E-03     78.6525E-03
            1444            1863     73.5783E-03     78.6525E-03
            1460            1863     73.5783E-03     78.6525E-03
            1462            1864     68.2638E-03     73.4095E-03
            1444            1864     68.2638E-03     73.4095E-03
            1445            1864     68.2638E-03     73.4095E-03
            1461            1864     68.2638E-03     73.4095E-03
            1463            1865     62.9344E-03     68.1316E-03
            1446            1865     62.9344E-03     68.1316E-03
            1462            1865     62.9344E-03     68.1316E-03
            1445            1865     62.9344E-03     68.1316E-03
            1464            1866     57.5894E-03     62.8180E-03
            1447            1866     57.5894E-03     62.8180E-03
            1463            1866     57.5894E-03     62.8180E-03
            1446            1866     57.5894E-03     62.8180E-03
            1465            1867     52.1886E-03     57.4356E-03
            1448            1867     52.1886E-03     57.4356E-03
            1447            1867     52.1886E-03     57.4356E-03
            1464            1867     52.1886E-03     57.4356E-03
            1466            1868     46.7412E-03     52.0174E-03
            1449            1868     46.7412E-03     52.0174E-03
            1465            1868     46.7412E-03     52.0174E-03
            1448            1868     46.7412E-03     52.0174E-03
            1467            1869     41.2751E-03     46.5648E-03
            1449            1869     41.2751E-03     46.5648E-03
            1450            1869     41.2751E-03     46.5648E-03
            1466            1869     41.2751E-03     46.5648E-03
            1467            1870     35.7822E-03     41.0899E-03
            1450            1870     35.7822E-03     41.0899E-03
            1451            1870     35.7822E-03     41.0899E-03
            1468            1870     35.7822E-03     41.0899E-03
            1468            1871     30.3702E-03     35.6685E-03
            1451            1871     30.3702E-03     35.6685E-03
            1469            1871     30.3702E-03     35.6685E-03
            1452            1871     30.3702E-03     35.6685E-03
            1452            1872     25.1128E-03     30.2483E-03
            1453            1872     25.1128E-03     30.2483E-03
            1470            1872     25.1128E-03     30.2483E-03
            1469            1872     25.1128E-03     30.2483E-03
            1453            1873     20.4872E-03     25.3443E-03
            1470            1873     20.4872E-03     25.3443E-03
            1471            1873     20.4872E-03     25.3443E-03
            1454            1873     20.4872E-03     25.3443E-03
            1472            1874     17.3860E-03     21.5836E-03
            1455            1874     17.3860E-03     21.5836E-03
            1454            1874     17.3860E-03     21.5836E-03
            1471            1874     17.3860E-03     21.5836E-03
            1473            1875     112.092E-03     113.850E-03
            1457            1875     112.092E-03     113.850E-03
            1456            1875     112.092E-03     113.850E-03
            1474            1875     112.092E-03     113.850E-03
            1474            1876     104.508E-03     105.100E-03
            1458            1876     104.508E-03     105.100E-03
            1475            1876     104.508E-03     105.100E-03
            1457            1876     104.508E-03     105.100E-03
            1458            1877     99.0030E-03     100.068E-03
            1476            1877     99.0030E-03     100.068E-03
            1459            1877     99.0030E-03     100.068E-03
            1475            1877     99.0030E-03     100.068E-03
            1476            1878     93.4790E-03     95.1427E-03
            1459            1878     93.4790E-03     95.1427E-03
            1477            1878     93.4790E-03     95.1427E-03
            1460            1878     93.4790E-03     95.1427E-03
            1461            1879     87.9961E-03     90.0004E-03
            1478            1879     87.9961E-03     90.0004E-03
            1460            1879     87.9961E-03     90.0004E-03
            1477            1879     87.9961E-03     90.0004E-03
            1479            1880     82.2962E-03     84.5747E-03
            1462            1880     82.2962E-03     84.5747E-03
            1478            1880     82.2962E-03     84.5747E-03
            1461            1880     82.2962E-03     84.5747E-03
            1463            1881     76.4876E-03     78.8480E-03
            1480            1881     76.4876E-03     78.8480E-03
            1462            1881     76.4876E-03     78.8480E-03
            1479            1881     76.4876E-03     78.8480E-03
            1480            1882     70.5125E-03     72.9548E-03
            1481            1882     70.5125E-03     72.9548E-03
            1463            1882     70.5125E-03     72.9548E-03
            1464            1882     70.5125E-03     72.9548E-03
            1464            1883     64.4720E-03     66.9338E-03
            1465            1883     64.4720E-03     66.9338E-03
            1481            1883     64.4720E-03     66.9338E-03
            1482            1883     64.4720E-03     66.9338E-03
            1465            1884     58.3465E-03     60.8461E-03
            1483            1884     58.3465E-03     60.8461E-03
            1466            1884     58.3465E-03     60.8461E-03
            1482            1884     58.3465E-03     60.8461E-03
            1466            1885     52.2137E-03     54.7409E-03
            1467            1885     52.2137E-03     54.7409E-03
            1483            1885     52.2137E-03     54.7409E-03
            1484            1885     52.2137E-03     54.7409E-03
            1484            1886     46.1020E-03     48.6464E-03
            1468            1886     46.1020E-03     48.6464E-03
            1485            1886     46.1020E-03     48.6464E-03
            1467            1886     46.1020E-03     48.6464E-03
            1485            1887     40.1322E-03     42.6295E-03
            1469            1887     40.1322E-03     42.6295E-03
            1468            1887     40.1322E-03     42.6295E-03
            1486            1887     40.1322E-03     42.6295E-03
            1469            1888     34.4527E-03     36.7739E-03
            1487            1888     34.4527E-03     36.7739E-03
            1470            1888     34.4527E-03     36.7739E-03
            1486            1888     34.4527E-03     36.7739E-03
            1470            1889     29.4082E-03     31.4643E-03
            1471            1889     29.4082E-03     31.4643E-03
            1487            1889     29.4082E-03     31.4643E-03
            1488            1889     29.4082E-03     31.4643E-03
            1472            1890     25.7037E-03     27.9635E-03
            1489            1890     25.7037E-03     27.9635E-03
            1488            1890     25.7037E-03     27.9635E-03
            1471            1890     25.7037E-03     27.9635E-03
            1473            1891     120.372E-03     118.755E-03
            1491            1891     120.372E-03     118.755E-03
            1490            1891     120.372E-03     118.755E-03
            1474            1891     120.372E-03     118.755E-03
            1492            1892     119.730E-03     118.480E-03
            1491            1892     119.730E-03     118.480E-03
            1474            1892     119.730E-03     118.480E-03
            1475            1892     119.730E-03     118.480E-03
            1492            1893     116.446E-03     115.115E-03
            1475            1893     116.446E-03     115.115E-03
            1493            1893     116.446E-03     115.115E-03
            1476            1893     116.446E-03     115.115E-03
            1476            1894     111.150E-03     110.107E-03
            1494            1894     111.150E-03     110.107E-03
            1493            1894     111.150E-03     110.107E-03
            1477            1894     111.150E-03     110.107E-03
            1478            1895     104.983E-03     104.143E-03
            1494            1895     104.983E-03     104.143E-03
            1477            1895     104.983E-03     104.143E-03
            1495            1895     104.983E-03     104.143E-03
            1496            1896     98.3025E-03     97.5917E-03
            1479            1896     98.3025E-03     97.5917E-03
            1478            1896     98.3025E-03     97.5917E-03
            1495            1896     98.3025E-03     97.5917E-03
            1480            1897     91.3848E-03     90.7877E-03
            1479            1897     91.3848E-03     90.7877E-03
            1496            1897     91.3848E-03     90.7877E-03
            1497            1897     91.3848E-03     90.7877E-03
            1481            1898     84.3817E-03     83.8078E-03
            1498            1898     84.3817E-03     83.8078E-03
            1480            1898     84.3817E-03     83.8078E-03
            1497            1898     84.3817E-03     83.8078E-03
            1481            1899     77.3176E-03     76.7769E-03
            1498            1899     77.3176E-03     76.7769E-03
            1499            1899     77.3176E-03     76.7769E-03
            1482            1899     77.3176E-03     76.7769E-03
            1499            1900     70.2550E-03     69.7133E-03
            1482            1900     70.2550E-03     69.7133E-03
            1500            1900     70.2550E-03     69.7133E-03
            1483            1900     70.2550E-03     69.7133E-03
            1501            1901     63.2256E-03     62.6884E-03
            1484            1901     63.2256E-03     62.6884E-03
            1500            1901     63.2256E-03     62.6884E-03
            1483            1901     63.2256E-03     62.6884E-03
            1485            1902     56.2691E-03     55.7269E-03
            1484            1902     56.2691E-03     55.7269E-03
            1502            1902     56.2691E-03     55.7269E-03
            1501            1902     56.2691E-03     55.7269E-03
            1485            1903     49.4799E-03     48.9170E-03
            1502            1903     49.4799E-03     48.9170E-03
            1503            1903     49.4799E-03     48.9170E-03
            1486            1903     49.4799E-03     48.9170E-03
            1487            1904     42.8884E-03     42.3707E-03
            1486            1904     42.8884E-03     42.3707E-03
            1503            1904     42.8884E-03     42.3707E-03
            1504            1904     42.8884E-03     42.3707E-03
            1504            1905     36.7067E-03     36.7031E-03
            1488            1905     36.7067E-03     36.7031E-03
            1505            1905     36.7067E-03     36.7031E-03
            1487            1905     36.7067E-03     36.7031E-03
            1488            1906     30.6241E-03     33.1223E-03
            1505            1906     30.6241E-03     33.1223E-03
            1506            1906     30.6241E-03     33.1223E-03
            1489            1906     30.6241E-03     33.1223E-03
            1491            1907     129.231E-03     131.214E-03
            1507            1907     129.231E-03     131.214E-03
            1490            1907     129.231E-03     131.214E-03
            1508            1907     129.231E-03     131.214E-03
            1491            1908     125.644E-03     127.656E-03
            1508            1908     125.644E-03     127.656E-03
            1492            1908     125.644E-03     127.656E-03
            1509            1908     125.644E-03     127.656E-03
            1492            1909     120.886E-03     122.445E-03
            1510            1909     120.886E-03     122.445E-03
            1493            1909     120.886E-03     122.445E-03
            1509            1909     120.886E-03     122.445E-03
            1493            1910     114.465E-03     115.539E-03
            1511            1910     114.465E-03     115.539E-03
            1510            1910     114.465E-03     115.539E-03
            1494            1910     114.465E-03     115.539E-03
            1495            1911     107.175E-03     108.024E-03
            1511            1911     107.175E-03     108.024E-03
            1494            1911     107.175E-03     108.024E-03
            1512            1911     107.175E-03     108.024E-03
            1513            1912     99.6004E-03     100.397E-03
            1495            1912     99.6004E-03     100.397E-03
            1496            1912     99.6004E-03     100.397E-03
            1512            1912     99.6004E-03     100.397E-03
            1514            1913     92.0422E-03     92.7685E-03
            1496            1913     92.0422E-03     92.7685E-03
            1513            1913     92.0422E-03     92.7685E-03
            1497            1913     92.0422E-03     92.7685E-03
            1498            1914     84.4835E-03     85.2050E-03
            1515            1914     84.4835E-03     85.2050E-03
            1497            1914     84.4835E-03     85.2050E-03
            1514            1914     84.4835E-03     85.2050E-03
            1499            1915     77.0004E-03     77.6892E-03
            1515            1915     77.0004E-03     77.6892E-03
            1516            1915     77.0004E-03     77.6892E-03
            1498            1915     77.0004E-03     77.6892E-03
            1516            1916     69.5685E-03     70.2444E-03
            1517            1916     69.5685E-03     70.2444E-03
            1499            1916     69.5685E-03     70.2444E-03
            1500            1916     69.5685E-03     70.2444E-03
            1518            1917     62.2072E-03     62.8504E-03
            1501            1917     62.2072E-03     62.8504E-03
            1500            1917     62.2072E-03     62.8504E-03
            1517            1917     62.2072E-03     62.8504E-03
            1501            1918     54.9200E-03     55.5624E-03
            1519            1918     54.9200E-03     55.5624E-03
            1502            1918     54.9200E-03     55.5624E-03
            1518            1918     54.9200E-03     55.5624E-03
            1502            1919     47.6992E-03     48.4272E-03
            1503            1919     47.6992E-03     48.4272E-03
            1520            1919     47.6992E-03     48.4272E-03
            1519            1919     47.6992E-03     48.4272E-03
            1520            1920     40.4875E-03     41.5528E-03
            1521            1920     40.4875E-03     41.5528E-03
            1503            1920     40.4875E-03     41.5528E-03
            1504            1920     40.4875E-03     41.5528E-03
            1521            1921     33.1265E-03     35.6211E-03
            1522            1921     33.1265E-03     35.6211E-03
            1505            1921     33.1265E-03     35.6211E-03
            1504            1921     33.1265E-03     35.6211E-03
            1522            1922     26.3849E-03     30.1757E-03
            1505            1922     26.3849E-03     30.1757E-03
            1523            1922     26.3849E-03     30.1757E-03
            1506            1922     26.3849E-03     30.1757E-03
            1508            1923     137.579E-03     140.240E-03
            1524            1923     137.579E-03     140.240E-03
            1525            1923     137.579E-03     140.240E-03
            1507            1923     137.579E-03     140.240E-03
            1525            1924     130.722E-03     134.464E-03
            1526            1924     130.722E-03     134.464E-03
            1509            1924     130.722E-03     134.464E-03
            1508            1924     130.722E-03     134.464E-03
            1509            1925     123.806E-03     127.098E-03
            1527            1925     123.806E-03     127.098E-03
            1526            1925     123.806E-03     127.098E-03
            1510            1925     123.806E-03     127.098E-03
            1527            1926     115.947E-03     118.745E-03
            1510            1926     115.947E-03     118.745E-03
            1528            1926     115.947E-03     118.745E-03
            1511            1926     115.947E-03     118.745E-03
            1512            1927     107.804E-03     110.286E-03
            1528            1927     107.804E-03     110.286E-03
            1511            1927     107.804E-03     110.286E-03
            1529            1927     107.804E-03     110.286E-03
            1529            1928     99.8487E-03     102.069E-03
            1530            1928     99.8487E-03     102.069E-03
            1512            1928     99.8487E-03     102.069E-03
            1513            1928     99.8487E-03     102.069E-03
            1531            1929     91.9250E-03     94.0229E-03
            1513            1929     91.9250E-03     94.0229E-03
            1530            1929     91.9250E-03     94.0229E-03
            1514            1929     91.9250E-03     94.0229E-03
            1531            1930     84.1230E-03     86.1407E-03
            1532            1930     84.1230E-03     86.1407E-03
            1514            1930     84.1230E-03     86.1407E-03
            1515            1930     84.1230E-03     86.1407E-03
            1516            1931     76.3910E-03     78.3697E-03
            1532            1931     76.3910E-03     78.3697E-03
            1533            1931     76.3910E-03     78.3697E-03
            1515            1931     76.3910E-03     78.3697E-03
            1517            1932     68.7386E-03     70.6796E-03
            1516            1932     68.7386E-03     70.6796E-03
            1533            1932     68.7386E-03     70.6796E-03
            1534            1932     68.7386E-03     70.6796E-03
            1534            1933     61.1494E-03     63.0728E-03
            1535            1933     61.1494E-03     63.0728E-03
            1517            1933     61.1494E-03     63.0728E-03
            1518            1933     61.1494E-03     63.0728E-03
            1536            1934     53.6045E-03     55.5527E-03
            1518            1934     53.6045E-03     55.5527E-03
            1519            1934     53.6045E-03     55.5527E-03
            1535            1934     53.6045E-03     55.5527E-03
            1520            1935     46.1098E-03     48.1960E-03
            1536            1935     46.1098E-03     48.1960E-03
            1537            1935     46.1098E-03     48.1960E-03
            1519            1935     46.1098E-03     48.1960E-03
            1520            1936     38.5145E-03     41.2190E-03
            1537            1936     38.5145E-03     41.2190E-03
            1521            1936     38.5145E-03     41.2190E-03
            1538            1936     38.5145E-03     41.2190E-03
            1522            1937     30.8645E-03     34.3740E-03
            1521            1937     30.8645E-03     34.3740E-03
            1538            1937     30.8645E-03     34.3740E-03
            1539            1937     30.8645E-03     34.3740E-03
            1523            1938     23.9143E-03     27.0583E-03
            1522            1938     23.9143E-03     27.0583E-03
            1539            1938     23.9143E-03     27.0583E-03
            1540            1938     23.9143E-03     27.0583E-03
            1541            1939     144.391E-03     147.917E-03
            1542            1939     144.391E-03     147.917E-03
            1524            1939     144.391E-03     147.917E-03
            1525            1939     144.391E-03     147.917E-03
            1525            1940     134.848E-03     138.748E-03
            1543            1940     134.848E-03     138.748E-03
            1542            1940     134.848E-03     138.748E-03
            1526            1940     134.848E-03     138.748E-03
            1526            1941     124.671E-03     128.860E-03
            1543            1941     124.671E-03     128.860E-03
            1527            1941     124.671E-03     128.860E-03
            1544            1941     124.671E-03     128.860E-03
            1527            1942     115.286E-03     119.398E-03
            1544            1942     115.286E-03     119.398E-03
            1545            1942     115.286E-03     119.398E-03
            1528            1942     115.286E-03     119.398E-03
            1529            1943     106.968E-03     110.731E-03
            1546            1943     106.968E-03     110.731E-03
            1545            1943     106.968E-03     110.731E-03
            1528            1943     106.968E-03     110.731E-03
            1529            1944     98.8744E-03     102.393E-03
            1530            1944     98.8744E-03     102.393E-03
            1546            1944     98.8744E-03     102.393E-03
            1547            1944     98.8744E-03     102.393E-03
            1531            1945     90.9659E-03     94.3608E-03
            1547            1945     90.9659E-03     94.3608E-03
            1548            1945     90.9659E-03     94.3608E-03
            1530            1945     90.9659E-03     94.3608E-03
            1548            1946     83.1430E-03     86.4610E-03
            1549            1946     83.1430E-03     86.4610E-03
            1532            1946     83.1430E-03     86.4610E-03
            1531            1946     83.1430E-03     86.4610E-03
            1532            1947     75.3775E-03     78.6640E-03
            1549            1947     75.3775E-03     78.6640E-03
            1533            1947     75.3775E-03     78.6640E-03
            1550            1947     75.3775E-03     78.6640E-03
            1533            1948     67.6612E-03     70.9216E-03
            1534            1948     67.6612E-03     70.9216E-03
            1551            1948     67.6612E-03     70.9216E-03
            1550            1948     67.6612E-03     70.9216E-03
            1552            1949     59.9807E-03     63.2338E-03
            1551            1949     59.9807E-03     63.2338E-03
            1535            1949     59.9807E-03     63.2338E-03
            1534            1949     59.9807E-03     63.2338E-03
            1536            1950     52.3440E-03     55.6202E-03
            1553            1950     52.3440E-03     55.6202E-03
            1535            1950     52.3440E-03     55.6202E-03
            1552            1950     52.3440E-03     55.6202E-03
            1536            1951     44.7053E-03     48.1332E-03
            1537            1951     44.7053E-03     48.1332E-03
            1554            1951     44.7053E-03     48.1332E-03
            1553            1951     44.7053E-03     48.1332E-03
            1537            1952     37.1980E-03     40.9929E-03
            1555            1952     37.1980E-03     40.9929E-03
            1538            1952     37.1980E-03     40.9929E-03
            1554            1952     37.1980E-03     40.9929E-03
            1539            1953     29.7431E-03     33.7875E-03
            1555            1953     29.7431E-03     33.7875E-03
            1538            1953     29.7431E-03     33.7875E-03
            1556            1953     29.7431E-03     33.7875E-03
            1557            1954     22.2906E-03     26.4686E-03
            1540            1954     22.2906E-03     26.4686E-03
            1539            1954     22.2906E-03     26.4686E-03
            1556            1954     22.2906E-03     26.4686E-03
            1541            1955     150.644E-03     152.908E-03
            1542            1955     150.644E-03     152.908E-03
            1558            1955     150.644E-03     152.908E-03
            1559            1955     150.644E-03     152.908E-03
            1559            1956     135.659E-03     139.714E-03
            1560            1956     135.659E-03     139.714E-03
            1542            1956     135.659E-03     139.714E-03
            1543            1956     135.659E-03     139.714E-03
            1561            1957     122.548E-03     127.497E-03
            1543            1957     122.548E-03     127.497E-03
            1560            1957     122.548E-03     127.497E-03
            1544            1957     122.548E-03     127.497E-03
            1561            1958     113.143E-03     118.020E-03
            1562            1958     113.143E-03     118.020E-03
            1544            1958     113.143E-03     118.020E-03
            1545            1958     113.143E-03     118.020E-03
            1562            1959     104.833E-03     109.554E-03
            1563            1959     104.833E-03     109.554E-03
            1546            1959     104.833E-03     109.554E-03
            1545            1959     104.833E-03     109.554E-03
            1547            1960     96.9591E-03     101.627E-03
            1563            1960     96.9591E-03     101.627E-03
            1564            1960     96.9591E-03     101.627E-03
            1546            1960     96.9591E-03     101.627E-03
            1564            1961     89.2806E-03     93.8888E-03
            1565            1961     89.2806E-03     93.8888E-03
            1547            1961     89.2806E-03     93.8888E-03
            1548            1961     89.2806E-03     93.8888E-03
            1566            1962     81.6264E-03     86.2432E-03
            1548            1962     81.6264E-03     86.2432E-03
            1549            1962     81.6264E-03     86.2432E-03
            1565            1962     81.6264E-03     86.2432E-03
            1567            1963     73.9996E-03     78.6084E-03
            1566            1963     73.9996E-03     78.6084E-03
            1550            1963     73.9996E-03     78.6084E-03
            1549            1963     73.9996E-03     78.6084E-03
            1551            1964     66.3660E-03     70.9834E-03
            1567            1964     66.3660E-03     70.9834E-03
            1568            1964     66.3660E-03     70.9834E-03
            1550            1964     66.3660E-03     70.9834E-03
            1552            1965     58.7423E-03     63.3546E-03
            1551            1965     58.7423E-03     63.3546E-03
            1568            1965     58.7423E-03     63.3546E-03
            1569            1965     58.7423E-03     63.3546E-03
            1570            1966     51.1441E-03     55.7619E-03
            1552            1966     51.1441E-03     55.7619E-03
            1553            1966     51.1441E-03     55.7619E-03
            1569            1966     51.1441E-03     55.7619E-03
            1554            1967     43.6076E-03     48.2725E-03
            1570            1967     43.6076E-03     48.2725E-03
            1553            1967     43.6076E-03     48.2725E-03
            1571            1967     43.6076E-03     48.2725E-03
            1571            1968     36.2760E-03     40.8730E-03
            1554            1968     36.2760E-03     40.8730E-03
            1572            1968     36.2760E-03     40.8730E-03
            1555            1968     36.2760E-03     40.8730E-03
            1572            1969     29.4593E-03     34.2403E-03
            1556            1969     29.4593E-03     34.2403E-03
            1573            1969     29.4593E-03     34.2403E-03
            1555            1969     29.4593E-03     34.2403E-03
            1574            1970     22.4279E-03     27.4798E-03
            1557            1970     22.4279E-03     27.4798E-03
            1573            1970     22.4279E-03     27.4798E-03
            1556            1970     22.4279E-03     27.4798E-03
            1559            1971     151.288E-03     155.044E-03
            1576            1971     151.288E-03     155.044E-03
            1575            1971     151.288E-03     155.044E-03
            1558            1971     151.288E-03     155.044E-03
            1559            1972     131.262E-03     136.208E-03
            1576            1972     131.262E-03     136.208E-03
            1577            1972     131.262E-03     136.208E-03
            1560            1972     131.262E-03     136.208E-03
            1577            1973     119.012E-03     124.024E-03
            1578            1973     119.012E-03     124.024E-03
            1561            1973     119.012E-03     124.024E-03
            1560            1973     119.012E-03     124.024E-03
            1578            1974     109.996E-03     115.275E-03
            1579            1974     109.996E-03     115.275E-03
            1562            1974     109.996E-03     115.275E-03
            1561            1974     109.996E-03     115.275E-03
            1563            1975     101.954E-03     107.502E-03
            1579            1975     101.954E-03     107.502E-03
            1562            1975     101.954E-03     107.502E-03
            1580            1975     101.954E-03     107.502E-03
            1564            1976     94.4964E-03     100.207E-03
            1581            1976     94.4964E-03     100.207E-03
            1563            1976     94.4964E-03     100.207E-03
            1580            1976     94.4964E-03     100.207E-03
            1581            1977     87.1243E-03     92.9672E-03
            1564            1977     87.1243E-03     92.9672E-03
            1582            1977     87.1243E-03     92.9672E-03
            1565            1977     87.1243E-03     92.9672E-03
            1583            1978     79.7986E-03     85.7052E-03
            1582            1978     79.7986E-03     85.7052E-03
            1565            1978     79.7986E-03     85.7052E-03
            1566            1978     79.7986E-03     85.7052E-03
            1584            1979     72.4158E-03     78.3771E-03
            1583            1979     72.4158E-03     78.3771E-03
            1566            1979     72.4158E-03     78.3771E-03
            1567            1979     72.4158E-03     78.3771E-03
            1584            1980     64.9941E-03     70.9842E-03
            1585            1980     64.9941E-03     70.9842E-03
            1567            1980     64.9941E-03     70.9842E-03
            1568            1980     64.9941E-03     70.9842E-03
            1586            1981     57.5478E-03     63.5527E-03
            1568            1981     57.5478E-03     63.5527E-03
            1585            1981     57.5478E-03     63.5527E-03
            1569            1981     57.5478E-03     63.5527E-03
            1587            1982     50.1035E-03     56.0978E-03
            1569            1982     50.1035E-03     56.0978E-03
            1586            1982     50.1035E-03     56.0978E-03
            1570            1982     50.1035E-03     56.0978E-03
            1587            1983     42.8263E-03     48.6861E-03
            1570            1983     42.8263E-03     48.6861E-03
            1588            1983     42.8263E-03     48.6861E-03
            1571            1983     42.8263E-03     48.6861E-03
            1572            1984     35.7385E-03     41.3872E-03
            1571            1984     35.7385E-03     41.3872E-03
            1588            1984     35.7385E-03     41.3872E-03
            1589            1984     35.7385E-03     41.3872E-03
            1590            1985     29.6217E-03     34.7424E-03
            1589            1985     29.6217E-03     34.7424E-03
            1572            1985     29.6217E-03     34.7424E-03
            1573            1985     29.6217E-03     34.7424E-03
            1591            1986     24.5883E-03     29.3576E-03
            1573            1986     24.5883E-03     29.3576E-03
            1590            1986     24.5883E-03     29.3576E-03
            1574            1986     24.5883E-03     29.3576E-03
            1593            1987     151.630E-03     154.022E-03
            1576            1987     151.630E-03     154.022E-03
            1592            1987     151.630E-03     154.022E-03
            1575            1987     151.630E-03     154.022E-03
            1577            1988     140.961E-03     141.687E-03
            1576            1988     140.961E-03     141.687E-03
            1594            1988     140.961E-03     141.687E-03
            1593            1988     140.961E-03     141.687E-03
            1594            1989     132.944E-03     134.125E-03
            1577            1989     132.944E-03     134.125E-03
            1595            1989     132.944E-03     134.125E-03
            1578            1989     132.944E-03     134.125E-03
            1595            1990     124.892E-03     126.800E-03
            1596            1990     124.892E-03     126.800E-03
            1578            1990     124.892E-03     126.800E-03
            1579            1990     124.892E-03     126.800E-03
            1596            1991     117.142E-03     119.450E-03
            1579            1991     117.142E-03     119.450E-03
            1580            1991     117.142E-03     119.450E-03
            1597            1991     117.142E-03     119.450E-03
            1598            1992     109.221E-03     111.848E-03
            1580            1992     109.221E-03     111.848E-03
            1597            1992     109.221E-03     111.848E-03
            1581            1992     109.221E-03     111.848E-03
            1581            1993     101.301E-03     104.028E-03
            1598            1993     101.301E-03     104.028E-03
            1582            1993     101.301E-03     104.028E-03
            1599            1993     101.301E-03     104.028E-03
            1599            1994     93.2490E-03     96.0710E-03
            1583            1994     93.2490E-03     96.0710E-03
            1582            1994     93.2490E-03     96.0710E-03
            1600            1994     93.2490E-03     96.0710E-03
            1583            1995     85.1348E-03     87.9556E-03
            1584            1995     85.1348E-03     87.9556E-03
            1601            1995     85.1348E-03     87.9556E-03
            1600            1995     85.1348E-03     87.9556E-03
            1584            1996     76.9301E-03     79.7999E-03
            1601            1996     76.9301E-03     79.7999E-03
            1602            1996     76.9301E-03     79.7999E-03
            1585            1996     76.9301E-03     79.7999E-03
            1585            1997     68.7118E-03     71.5820E-03
            1586            1997     68.7118E-03     71.5820E-03
            1602            1997     68.7118E-03     71.5820E-03
            1603            1997     68.7118E-03     71.5820E-03
            1586            1998     60.5329E-03     63.4163E-03
            1604            1998     60.5329E-03     63.4163E-03
            1587            1998     60.5329E-03     63.4163E-03
            1603            1998     60.5329E-03     63.4163E-03
            1605            1999     52.5058E-03     55.2972E-03
            1604            1999     52.5058E-03     55.2972E-03
            1587            1999     52.5058E-03     55.2972E-03
            1588            1999     52.5058E-03     55.2972E-03
            1605            2000     44.8764E-03     47.3997E-03
            1589            2000     44.8764E-03     47.3997E-03
            1606            2000     44.8764E-03     47.3997E-03
            1588            2000     44.8764E-03     47.3997E-03
            1589            2001     38.0309E-03     40.0823E-03
            1590            2001     38.0309E-03     40.0823E-03
            1606            2001     38.0309E-03     40.0823E-03
            1607            2001     38.0309E-03     40.0823E-03
            1607            2002     32.9660E-03     34.6157E-03
            1590            2002     32.9660E-03     34.6157E-03
            1591            2002     32.9660E-03     34.6157E-03
            1608            2002     32.9660E-03     34.6157E-03
            1610            2003     160.658E-03     159.677E-03
            1593            2003     160.658E-03     159.677E-03
            1592            2003     160.658E-03     159.677E-03
            1609            2003     160.658E-03     159.677E-03
            1610            2004     157.684E-03     156.946E-03
            1593            2004     157.684E-03     156.946E-03
            1594            2004     157.684E-03     156.946E-03
            1611            2004     157.684E-03     156.946E-03
            1612            2005     151.532E-03     150.996E-03
            1595            2005     151.532E-03     150.996E-03
            1594            2005     151.532E-03     150.996E-03
            1611            2005     151.532E-03     150.996E-03
            1596            2006     143.758E-03     143.343E-03
            1612            2006     143.758E-03     143.343E-03
            1595            2006     143.758E-03     143.343E-03
            1613            2006     143.758E-03     143.343E-03
            1613            2007     135.026E-03     134.780E-03
            1596            2007     135.026E-03     134.780E-03
            1597            2007     135.026E-03     134.780E-03
            1614            2007     135.026E-03     134.780E-03
            1597            2008     125.965E-03     125.852E-03
            1615            2008     125.965E-03     125.852E-03
            1614            2008     125.965E-03     125.852E-03
            1598            2008     125.965E-03     125.852E-03
            1598            2009     116.807E-03     116.697E-03
            1616            2009     116.807E-03     116.697E-03
            1615            2009     116.807E-03     116.697E-03
            1599            2009     116.807E-03     116.697E-03
            1600            2010     107.545E-03     107.456E-03
            1616            2010     107.545E-03     107.456E-03
            1599            2010     107.545E-03     107.456E-03
            1617            2010     107.545E-03     107.456E-03
            1600            2011     98.2673E-03     98.1511E-03
            1601            2011     98.2673E-03     98.1511E-03
            1617            2011     98.2673E-03     98.1511E-03
            1618            2011     98.2673E-03     98.1511E-03
            1619            2012     88.9607E-03     88.8384E-03
            1602            2012     88.9607E-03     88.8384E-03
            1618            2012     88.9607E-03     88.8384E-03
            1601            2012     88.9607E-03     88.8384E-03
            1602            2013     79.6892E-03     79.5518E-03
            1619            2013     79.6892E-03     79.5518E-03
            1603            2013     79.6892E-03     79.5518E-03
            1620            2013     79.6892E-03     79.5518E-03
            1620            2014     70.4767E-03     70.3293E-03
            1603            2014     70.4767E-03     70.3293E-03
            1621            2014     70.4767E-03     70.3293E-03
            1604            2014     70.4767E-03     70.3293E-03
            1605            2015     61.4544E-03     61.2941E-03
            1604            2015     61.4544E-03     61.2941E-03
            1621            2015     61.4544E-03     61.2941E-03
            1622            2015     61.4544E-03     61.2941E-03
            1623            2016     52.5911E-03     52.4335E-03
            1622            2016     52.5911E-03     52.4335E-03
            1606            2016     52.5911E-03     52.4335E-03
            1605            2016     52.5911E-03     52.4335E-03
            1623            2017     44.2736E-03     44.4662E-03
            1607            2017     44.2736E-03     44.4662E-03
            1624            2017     44.2736E-03     44.4662E-03
            1606            2017     44.2736E-03     44.4662E-03
            1607            2018     35.7829E-03     38.6962E-03
            1625            2018     35.7829E-03     38.6962E-03
            1608            2018     35.7829E-03     38.6962E-03
            1624            2018     35.7829E-03     38.6962E-03
            1626            2019     171.094E-03     173.739E-03
            1609            2019     171.094E-03     173.739E-03
            1610            2019     171.094E-03     173.739E-03
            1627            2019     171.094E-03     173.739E-03
            1627            2020     164.277E-03     167.770E-03
            1611            2020     164.277E-03     167.770E-03
            1610            2020     164.277E-03     167.770E-03
            1628            2020     164.277E-03     167.770E-03
            1612            2021     156.283E-03     158.841E-03
            1628            2021     156.283E-03     158.841E-03
            1611            2021     156.283E-03     158.841E-03
            1629            2021     156.283E-03     158.841E-03
            1629            2022     146.635E-03     148.679E-03
            1612            2022     146.635E-03     148.679E-03
            1613            2022     146.635E-03     148.679E-03
            1630            2022     146.635E-03     148.679E-03
            1631            2023     136.611E-03     138.459E-03
            1613            2023     136.611E-03     138.459E-03
            1614            2023     136.611E-03     138.459E-03
            1630            2023     136.611E-03     138.459E-03
            1615            2024     126.735E-03     128.437E-03
            1632            2024     126.735E-03     128.437E-03
            1614            2024     126.735E-03     128.437E-03
            1631            2024     126.735E-03     128.437E-03
            1632            2025     116.873E-03     118.540E-03
            1615            2025     116.873E-03     118.540E-03
            1633            2025     116.873E-03     118.540E-03
            1616            2025     116.873E-03     118.540E-03
            1633            2026     107.119E-03     108.751E-03
            1617            2026     107.119E-03     108.751E-03
            1616            2026     107.119E-03     108.751E-03
            1634            2026     107.119E-03     108.751E-03
            1617            2027     97.4158E-03     99.0351E-03
            1618            2027     97.4158E-03     99.0351E-03
            1634            2027     97.4158E-03     99.0351E-03
            1635            2027     97.4158E-03     99.0351E-03
            1636            2028     87.7784E-03     89.3652E-03
            1619            2028     87.7784E-03     89.3652E-03
            1618            2028     87.7784E-03     89.3652E-03
            1635            2028     87.7784E-03     89.3652E-03
            1619            2029     78.2111E-03     79.7543E-03
            1620            2029     78.2111E-03     79.7543E-03
            1637            2029     78.2111E-03     79.7543E-03
            1636            2029     78.2111E-03     79.7543E-03
            1637            2030     68.6992E-03     70.2020E-03
            1620            2030     68.6992E-03     70.2020E-03
            1638            2030     68.6992E-03     70.2020E-03
            1621            2030     68.6992E-03     70.2020E-03
            1639            2031     59.3059E-03     60.8259E-03
            1622            2031     59.3059E-03     60.8259E-03
            1621            2031     59.3059E-03     60.8259E-03
            1638            2031     59.3059E-03     60.8259E-03
            1622            2032     49.9169E-03     51.7367E-03
            1639            2032     49.9169E-03     51.7367E-03
            1623            2032     49.9169E-03     51.7367E-03
            1640            2032     49.9169E-03     51.7367E-03
            1641            2033     40.2439E-03     43.5006E-03
            1640            2033     40.2439E-03     43.5006E-03
            1623            2033     40.2439E-03     43.5006E-03
            1624            2033     40.2439E-03     43.5006E-03
            1625            2034     30.5528E-03     35.6898E-03
            1624            2034     30.5528E-03     35.6898E-03
            1642            2034     30.5528E-03     35.6898E-03
            1641            2034     30.5528E-03     35.6898E-03
            1626            2035     179.132E-03     184.078E-03
            1644            2035     179.132E-03     184.078E-03
            1643            2035     179.132E-03     184.078E-03
            1627            2035     179.132E-03     184.078E-03
            1645            2036     169.227E-03     174.023E-03
            1644            2036     169.227E-03     174.023E-03
            1628            2036     169.227E-03     174.023E-03
            1627            2036     169.227E-03     174.023E-03
            1629            2037     157.932E-03     162.508E-03
            1628            2037     157.932E-03     162.508E-03
            1646            2037     157.932E-03     162.508E-03
            1645            2037     157.932E-03     162.508E-03
            1646            2038     146.751E-03     150.954E-03
            1630            2038     146.751E-03     150.954E-03
            1629            2038     146.751E-03     150.954E-03
            1647            2038     146.751E-03     150.954E-03
            1630            2039     136.438E-03     140.167E-03
            1648            2039     136.438E-03     140.167E-03
            1647            2039     136.438E-03     140.167E-03
            1631            2039     136.438E-03     140.167E-03
            1631            2040     126.218E-03     129.735E-03
            1648            2040     126.218E-03     129.735E-03
            1649            2040     126.218E-03     129.735E-03
            1632            2040     126.218E-03     129.735E-03
            1632            2041     116.177E-03     119.602E-03
            1649            2041     116.177E-03     119.602E-03
            1633            2041     116.177E-03     119.602E-03
            1650            2041     116.177E-03     119.602E-03
            1650            2042     106.216E-03     109.613E-03
            1634            2042     106.216E-03     109.613E-03
            1651            2042     106.216E-03     109.613E-03
            1633            2042     106.216E-03     109.613E-03
            1651            2043     96.3380E-03     99.7157E-03
            1652            2043     96.3380E-03     99.7157E-03
            1635            2043     96.3380E-03     99.7157E-03
            1634            2043     96.3380E-03     99.7157E-03
            1636            2044     86.5268E-03     89.8840E-03
            1635            2044     86.5268E-03     89.8840E-03
            1653            2044     86.5268E-03     89.8840E-03
            1652            2044     86.5268E-03     89.8840E-03
            1654            2045     76.7629E-03     80.0808E-03
            1637            2045     76.7629E-03     80.0808E-03
            1636            2045     76.7629E-03     80.0808E-03
            1653            2045     76.7629E-03     80.0808E-03
            1638            2046     67.0769E-03     70.3719E-03
            1655            2046     67.0769E-03     70.3719E-03
            1637            2046     67.0769E-03     70.3719E-03
            1654            2046     67.0769E-03     70.3719E-03
            1639            2047     57.3769E-03     60.7103E-03
            1656            2047     57.3769E-03     60.7103E-03
            1655            2047     57.3769E-03     60.7103E-03
            1638            2047     57.3769E-03     60.7103E-03
            1657            2048     47.7495E-03     51.6065E-03
            1656            2048     47.7495E-03     51.6065E-03
            1640            2048     47.7495E-03     51.6065E-03
            1639            2048     47.7495E-03     51.6065E-03
            1658            2049     37.8263E-03     42.8398E-03
            1641            2049     37.8263E-03     42.8398E-03
            1640            2049     37.8263E-03     42.8398E-03
            1657            2049     37.8263E-03     42.8398E-03
            1641            2050     28.0406E-03     32.8099E-03
            1659            2050     28.0406E-03     32.8099E-03
            1658            2050     28.0406E-03     32.8099E-03
            1642            2050     28.0406E-03     32.8099E-03
            1644            2051     186.013E-03     188.966E-03
            1643            2051     186.013E-03     188.966E-03
            1660            2051     186.013E-03     188.966E-03
            1661            2051     186.013E-03     188.966E-03
            1645            2052     170.039E-03     175.383E-03
            1662            2052     170.039E-03     175.383E-03
            1644            2052     170.039E-03     175.383E-03
            1661            2052     170.039E-03     175.383E-03
            1663            2053     155.625E-03     161.556E-03
            1645            2053     155.625E-03     161.556E-03
            1646            2053     155.625E-03     161.556E-03
            1662            2053     155.625E-03     161.556E-03
            1664            2054     144.666E-03     150.242E-03
            1646            2054     144.666E-03     150.242E-03
            1663            2054     144.666E-03     150.242E-03
            1647            2054     144.666E-03     150.242E-03
            1647            2055     134.419E-03     139.724E-03
            1648            2055     134.419E-03     139.724E-03
            1664            2055     134.419E-03     139.724E-03
            1665            2055     134.419E-03     139.724E-03
            1648            2056     124.454E-03     129.655E-03
            1666            2056     124.454E-03     129.655E-03
            1649            2056     124.454E-03     129.655E-03
            1665            2056     124.454E-03     129.655E-03
            1666            2057     114.590E-03     119.752E-03
            1649            2057     114.590E-03     119.752E-03
            1667            2057     114.590E-03     119.752E-03
            1650            2057     114.590E-03     119.752E-03
            1667            2058     104.749E-03     109.914E-03
            1668            2058     104.749E-03     109.914E-03
            1650            2058     104.749E-03     109.914E-03
            1651            2058     104.749E-03     109.914E-03
            1668            2059     94.9304E-03     100.108E-03
            1669            2059     94.9304E-03     100.108E-03
            1651            2059     94.9304E-03     100.108E-03
            1652            2059     94.9304E-03     100.108E-03
            1652            2060     85.1301E-03     90.3016E-03
            1653            2060     85.1301E-03     90.3016E-03
            1670            2060     85.1301E-03     90.3016E-03
            1669            2060     85.1301E-03     90.3016E-03
            1653            2061     75.3475E-03     80.5155E-03
            1671            2061     75.3475E-03     80.5155E-03
            1670            2061     75.3475E-03     80.5155E-03
            1654            2061     75.3475E-03     80.5155E-03
            1672            2062     65.5876E-03     70.7318E-03
            1671            2062     65.5876E-03     70.7318E-03
            1655            2062     65.5876E-03     70.7318E-03
            1654            2062     65.5876E-03     70.7318E-03
            1655            2063     55.8748E-03     61.0740E-03
            1673            2063     55.8748E-03     61.0740E-03
            1672            2063     55.8748E-03     61.0740E-03
            1656            2063     55.8748E-03     61.0740E-03
            1656            2064     46.2003E-03     51.6129E-03
            1657            2064     46.2003E-03     51.6129E-03
            1673            2064     46.2003E-03     51.6129E-03
            1674            2064     46.2003E-03     51.6129E-03
            1657            2065     37.1181E-03     42.6596E-03
            1675            2065     37.1181E-03     42.6596E-03
            1674            2065     37.1181E-03     42.6596E-03
            1658            2065     37.1181E-03     42.6596E-03
            1658            2066     27.3274E-03     33.8286E-03
            1675            2066     27.3274E-03     33.8286E-03
            1676            2066     27.3274E-03     33.8286E-03
            1659            2066     27.3274E-03     33.8286E-03
            1661            2067     185.907E-03     190.362E-03
            1678            2067     185.907E-03     190.362E-03
            1677            2067     185.907E-03     190.362E-03
            1660            2067     185.907E-03     190.362E-03
            1661            2068     164.728E-03     170.651E-03
            1678            2068     164.728E-03     170.651E-03
            1679            2068     164.728E-03     170.651E-03
            1662            2068     164.728E-03     170.651E-03
            1662            2069     151.263E-03     157.467E-03
            1679            2069     151.263E-03     157.467E-03
            1663            2069     151.263E-03     157.467E-03
            1680            2069     151.263E-03     157.467E-03
            1680            2070     140.883E-03     147.325E-03
            1681            2070     140.883E-03     147.325E-03
            1663            2070     140.883E-03     147.325E-03
            1664            2070     140.883E-03     147.325E-03
            1681            2071     131.136E-03     137.826E-03
            1665            2071     131.136E-03     137.826E-03
            1664            2071     131.136E-03     137.826E-03
            1682            2071     131.136E-03     137.826E-03
            1683            2072     121.749E-03     128.572E-03
            1666            2072     121.749E-03     128.572E-03
            1665            2072     121.749E-03     128.572E-03
            1682            2072     121.749E-03     128.572E-03
            1667            2073     112.323E-03     119.223E-03
            1684            2073     112.323E-03     119.223E-03
            1666            2073     112.323E-03     119.223E-03
            1683            2073     112.323E-03     119.223E-03
            1684            2074     102.854E-03     109.807E-03
            1668            2074     102.854E-03     109.807E-03
            1667            2074     102.854E-03     109.807E-03
            1685            2074     102.854E-03     109.807E-03
            1685            2075     93.3056E-03     100.283E-03
            1668            2075     93.3056E-03     100.283E-03
            1669            2075     93.3056E-03     100.283E-03
            1686            2075     93.3056E-03     100.283E-03
            1687            2076     83.6842E-03     90.7039E-03
            1669            2076     83.6842E-03     90.7039E-03
            1670            2076     83.6842E-03     90.7039E-03
            1686            2076     83.6842E-03     90.7039E-03
            1670            2077     74.0390E-03     81.0766E-03
            1671            2077     74.0390E-03     81.0766E-03
            1687            2077     74.0390E-03     81.0766E-03
            1688            2077     74.0390E-03     81.0766E-03
            1672            2078     64.3594E-03     71.4164E-03
            1671            2078     64.3594E-03     71.4164E-03
            1689            2078     64.3594E-03     71.4164E-03
            1688            2078     64.3594E-03     71.4164E-03
            1673            2079     54.8048E-03     61.8368E-03
            1672            2079     54.8048E-03     61.8368E-03
            1690            2079     54.8048E-03     61.8368E-03
            1689            2079     54.8048E-03     61.8368E-03
            1690            2080     45.4438E-03     52.2210E-03
            1674            2080     45.4438E-03     52.2210E-03
            1673            2080     45.4438E-03     52.2210E-03
            1691            2080     45.4438E-03     52.2210E-03
            1675            2081     36.9800E-03     43.2984E-03
            1691            2081     36.9800E-03     43.2984E-03
            1674            2081     36.9800E-03     43.2984E-03
            1692            2081     36.9800E-03     43.2984E-03
            1675            2082     29.7775E-03     35.7865E-03
            1692            2082     29.7775E-03     35.7865E-03
            1693            2082     29.7775E-03     35.7865E-03
            1676            2082     29.7775E-03     35.7865E-03
            1695            2083     183.098E-03     189.330E-03
            1694            2083     183.098E-03     189.330E-03
            1678            2083     183.098E-03     189.330E-03
            1677            2083     183.098E-03     189.330E-03
            1678            2084     167.192E-03     171.834E-03
            1679            2084     167.192E-03     171.834E-03
            1696            2084     167.192E-03     171.834E-03
            1695            2084     167.192E-03     171.834E-03
            1697            2085     156.094E-03     160.894E-03
            1680            2085     156.094E-03     160.894E-03
            1679            2085     156.094E-03     160.894E-03
            1696            2085     156.094E-03     160.894E-03
            1697            2086     145.697E-03     150.946E-03
            1681            2086     145.697E-03     150.946E-03
            1680            2086     145.697E-03     150.946E-03
            1698            2086     145.697E-03     150.946E-03
            1681            2087     135.920E-03     141.375E-03
            1682            2087     135.920E-03     141.375E-03
            1698            2087     135.920E-03     141.375E-03
            1699            2087     135.920E-03     141.375E-03
            1699            2088     126.151E-03     131.796E-03
            1700            2088     126.151E-03     131.796E-03
            1683            2088     126.151E-03     131.796E-03
            1682            2088     126.151E-03     131.796E-03
            1700            2089     116.438E-03     122.116E-03
            1701            2089     116.438E-03     122.116E-03
            1683            2089     116.438E-03     122.116E-03
            1684            2089     116.438E-03     122.116E-03
            1702            2090     106.623E-03     112.360E-03
            1685            2090     106.623E-03     112.360E-03
            1684            2090     106.623E-03     112.360E-03
            1701            2090     106.623E-03     112.360E-03
            1702            2091     96.7758E-03     102.513E-03
            1685            2091     96.7758E-03     102.513E-03
            1703            2091     96.7758E-03     102.513E-03
            1686            2091     96.7758E-03     102.513E-03
            1704            2092     86.8516E-03     92.6275E-03
            1703            2092     86.8516E-03     92.6275E-03
            1687            2092     86.8516E-03     92.6275E-03
            1686            2092     86.8516E-03     92.6275E-03
            1704            2093     76.9018E-03     82.6938E-03
            1688            2093     76.9018E-03     82.6938E-03
            1687            2093     76.9018E-03     82.6938E-03
            1705            2093     76.9018E-03     82.6938E-03
            1706            2094     66.9428E-03     72.7601E-03
            1688            2094     66.9428E-03     72.7601E-03
            1705            2094     66.9428E-03     72.7601E-03
            1689            2094     66.9428E-03     72.7601E-03
            1689            2095     57.0380E-03     62.7965E-03
            1707            2095     57.0380E-03     62.7965E-03
            1706            2095     57.0380E-03     62.7965E-03
            1690            2095     57.0380E-03     62.7965E-03
            1708            2096     47.3183E-03     52.9116E-03
            1691            2096     47.3183E-03     52.9116E-03
            1707            2096     47.3183E-03     52.9116E-03
            1690            2096     47.3183E-03     52.9116E-03
            1691            2097     38.0409E-03     43.1991E-03
            1709            2097     38.0409E-03     43.1991E-03
            1692            2097     38.0409E-03     43.1991E-03
            1708            2097     38.0409E-03     43.1991E-03
            1692            2098     30.2945E-03     34.4830E-03
            1710            2098     30.2945E-03     34.4830E-03
            1709            2098     30.2945E-03     34.4830E-03
            1693            2098     30.2945E-03     34.4830E-03
            1712            2099     434.123E-06     444.275E-06
            1711            2099     434.123E-06     444.275E-06
            1717            2099     434.123E-06     444.275E-06
            1716            2099     434.123E-06     444.275E-06
            1718            2100     382.512E-06     382.640E-06
            1713            2100     382.512E-06     382.640E-06
            1712            2100     382.512E-06     382.640E-06
            1717            2100     382.512E-06     382.640E-06
            1718            2101     435.053E-06     422.865E-06
            1714            2101     435.053E-06     422.865E-06
            1719            2101     435.053E-06     422.865E-06
            1713            2101     435.053E-06     422.865E-06
            1714            2102     482.002E-06     468.993E-06
            1719            2102     482.002E-06     468.993E-06
            1720            2102     482.002E-06     468.993E-06
            1715            2102     482.002E-06     468.993E-06
            1716            2103     322.287E-06     290.010E-06
            1722            2103     322.287E-06     290.010E-06
            1717            2103     322.287E-06     290.010E-06
            1721            2103     322.287E-06     290.010E-06
            1722            2104     338.127E-06     305.272E-06
            1717            2104     338.127E-06     305.272E-06
            1718            2104     338.127E-06     305.272E-06
            1723            2104     338.127E-06     305.272E-06
            1723            2105     416.492E-06     398.564E-06
            1724            2105     416.492E-06     398.564E-06
            1719            2105     416.492E-06     398.564E-06
            1718            2105     416.492E-06     398.564E-06
            1724            2106     476.104E-06     468.178E-06
            1725            2106     476.104E-06     468.178E-06
            1720            2106     476.104E-06     468.178E-06
            1719            2106     476.104E-06     468.178E-06
            1721            2107     175.980E-06     201.680E-06
            1727            2107     175.980E-06     201.680E-06
            1726            2107     175.980E-06     201.680E-06
            1722            2107     175.980E-06     201.680E-06
            1722            2108     244.770E-06     266.430E-06
            1728            2108     244.770E-06     266.430E-06
            1723            2108     244.770E-06     266.430E-06
            1727            2108     244.770E-06     266.430E-06
            1723            2109     376.688E-06     386.753E-06
            1724            2109     376.688E-06     386.753E-06
            1729            2109     376.688E-06     386.753E-06
            1728            2109     376.688E-06     386.753E-06
            1730            2110     463.889E-06     461.207E-06
            1724            2110     463.889E-06     461.207E-06
            1725            2110     463.889E-06     461.207E-06
            1729            2110     463.889E-06     461.207E-06
            1732            2111     153.871E-06     177.350E-06
            1726            2111     153.871E-06     177.350E-06
            1731            2111     153.871E-06     177.350E-06
            1727            2111     153.871E-06     177.350E-06
            1727            2112     228.038E-06     233.926E-06
            1728            2112     228.038E-06     233.926E-06
            1733            2112     228.038E-06     233.926E-06
            1732            2112     228.038E-06     233.926E-06
            1729            2113     370.318E-06     366.638E-06
            1734            2113     370.318E-06     366.638E-06
            1733            2113     370.318E-06     366.638E-06
            1728            2113     370.318E-06     366.638E-06
            1735            2114     465.213E-06     454.836E-06
            1729            2114     465.213E-06     454.836E-06
            1730            2114     465.213E-06     454.836E-06
            1734            2114     465.213E-06     454.836E-06
            1741            2115     217.955E-03     208.067E-03
            1742            2115     217.955E-03     208.067E-03
            1736            2115     217.955E-03     208.067E-03
            1737            2115     217.955E-03     208.067E-03
            1737            2116     193.196E-03     185.106E-03
            1738            2116     193.196E-03     185.106E-03
            1743            2116     193.196E-03     185.106E-03
            1742            2116     193.196E-03     185.106E-03
            1738            2117     145.987E-03     138.851E-03
            1743            2117     145.987E-03     138.851E-03
            1739            2117     145.987E-03     138.851E-03
            1744            2117     145.987E-03     138.851E-03
            1745            2118     84.5128E-03     81.9735E-03
            1739            2118     84.5128E-03     81.9735E-03
            1740            2118     84.5128E-03     81.9735E-03
            1744            2118     84.5128E-03     81.9735E-03
            1746            2119     212.794E-03     219.197E-03
            1741            2119     212.794E-03     219.197E-03
            1742            2119     212.794E-03     219.197E-03
            1747            2119     212.794E-03     219.197E-03
            1743            2120     187.777E-03     192.239E-03
            1742            2120     187.777E-03     192.239E-03
            1747            2120     187.777E-03     192.239E-03
            1748            2120     187.777E-03     192.239E-03
            1743            2121     145.859E-03     144.448E-03
            1744            2121     145.859E-03     144.448E-03
            1749            2121     145.859E-03     144.448E-03
            1748            2121     145.859E-03     144.448E-03
            1744            2122     82.3298E-03     81.7816E-03
            1745            2122     82.3298E-03     81.7816E-03
            1750            2122     82.3298E-03     81.7816E-03
            1749            2122     82.3298E-03     81.7816E-03
            1751            2123     225.219E-03     227.909E-03
            1747            2123     225.219E-03     227.909E-03
            1752            2123     225.219E-03     227.909E-03
            1746            2123     225.219E-03     227.909E-03
            1752            2124     192.135E-03     194.071E-03
            1747            2124     192.135E-03     194.071E-03
            1748            2124     192.135E-03     194.071E-03
            1753            2124     192.135E-03     194.071E-03
            1748            2125     143.076E-03     142.490E-03
            1753            2125     143.076E-03     142.490E-03
            1749            2125     143.076E-03     142.490E-03
            1754            2125     143.076E-03     142.490E-03
            1755            2126     73.3394E-03     77.6701E-03
            1754            2126     73.3394E-03     77.6701E-03
            1749            2126     73.3394E-03     77.6701E-03
            1750            2126     73.3394E-03     77.6701E-03
            1752            2127     243.810E-03     236.382E-03
            1756            2127     243.810E-03     236.382E-03
            1751            2127     243.810E-03     236.382E-03
            1757            2127     243.810E-03     236.382E-03
            1752            2128     200.208E-03     191.054E-03
            1753            2128     200.208E-03     191.054E-03
            1758            2128     200.208E-03     191.054E-03
            1757            2128     200.208E-03     191.054E-03
            1759            2129     140.888E-03     130.795E-03
            1758            2129     140.888E-03     130.795E-03
            1753            2129     140.888E-03     130.795E-03
            1754            2129     140.888E-03     130.795E-03
            1754            2130     67.4357E-03     62.7224E-03
            1759            2130     67.4357E-03     62.7224E-03
            1760            2130     67.4357E-03     62.7224E-03
            1755            2130     67.4357E-03     62.7224E-03
            1779            2131     221.440E-03     222.855E-03
            1762            2131     221.440E-03     222.855E-03
            1778            2131     221.440E-03     222.855E-03
            1761            2131     221.440E-03     222.855E-03
            1779            2132     225.592E-03     225.934E-03
            1763            2132     225.592E-03     225.934E-03
            1780            2132     225.592E-03     225.934E-03
            1762            2132     225.592E-03     225.934E-03
            1781            2133     223.623E-03     222.585E-03
            1763            2133     223.623E-03     222.585E-03
            1780            2133     223.623E-03     222.585E-03
            1764            2133     223.623E-03     222.585E-03
            1764            2134     217.694E-03     216.044E-03
            1765            2134     217.694E-03     216.044E-03
            1781            2134     217.694E-03     216.044E-03
            1782            2134     217.694E-03     216.044E-03
            1783            2135     210.019E-03     207.957E-03
            1765            2135     210.019E-03     207.957E-03
            1766            2135     210.019E-03     207.957E-03
            1782            2135     210.019E-03     207.957E-03
            1784            2136     202.004E-03     199.258E-03
            1766            2136     202.004E-03     199.258E-03
            1783            2136     202.004E-03     199.258E-03
            1767            2136     202.004E-03     199.258E-03
            1785            2137     193.717E-03     190.439E-03
            1784            2137     193.717E-03     190.439E-03
            1767            2137     193.717E-03     190.439E-03
            1768            2137     193.717E-03     190.439E-03
            1768            2138     185.503E-03     181.730E-03
            1786            2138     185.503E-03     181.730E-03
            1769            2138     185.503E-03     181.730E-03
            1785            2138     185.503E-03     181.730E-03
            1769            2139     177.482E-03     173.352E-03
            1787            2139     177.482E-03     173.352E-03
            1770            2139     177.482E-03     173.352E-03
            1786            2139     177.482E-03     173.352E-03
            1771            2140     169.804E-03     165.488E-03
            1787            2140     169.804E-03     165.488E-03
            1770            2140     169.804E-03     165.488E-03
            1788            2140     169.804E-03     165.488E-03
            1771            2141     162.630E-03     158.304E-03
            1789            2141     162.630E-03     158.304E-03
            1772            2141     162.630E-03     158.304E-03
            1788            2141     162.630E-03     158.304E-03
            1789            2142     155.906E-03     151.831E-03
            1790            2142     155.906E-03     151.831E-03
            1773            2142     155.906E-03     151.831E-03
            1772            2142     155.906E-03     151.831E-03
            1774            2143     149.960E-03     146.360E-03
            1773            2143     149.960E-03     146.360E-03
            1790            2143     149.960E-03     146.360E-03
            1791            2143     149.960E-03     146.360E-03
            1791            2144     143.320E-03     140.445E-03
            1774            2144     143.320E-03     140.445E-03
            1792            2144     143.320E-03     140.445E-03
            1775            2144     143.320E-03     140.445E-03
            1776            2145     136.413E-03     135.693E-03
            1775            2145     136.413E-03     135.693E-03
            1792            2145     136.413E-03     135.693E-03
            1793            2145     136.413E-03     135.693E-03
            1776            2146     123.105E-03     125.382E-03
            1794            2146     123.105E-03     125.382E-03
            1793            2146     123.105E-03     125.382E-03
            1777            2146     123.105E-03     125.382E-03
            1796            2147     240.007E-03     246.030E-03
            1779            2147     240.007E-03     246.030E-03
            1795            2147     240.007E-03     246.030E-03
            1778            2147     240.007E-03     246.030E-03
            1796            2148     237.300E-03     242.663E-03
            1779            2148     237.300E-03     242.663E-03
            1780            2148     237.300E-03     242.663E-03
            1797            2148     237.300E-03     242.663E-03
            1798            2149     228.722E-03     232.522E-03
            1781            2149     228.722E-03     232.522E-03
            1780            2149     228.722E-03     232.522E-03
            1797            2149     228.722E-03     232.522E-03
            1799            2150     217.953E-03     221.081E-03
            1781            2150     217.953E-03     221.081E-03
            1782            2150     217.953E-03     221.081E-03
            1798            2150     217.953E-03     221.081E-03
            1782            2151     207.448E-03     210.310E-03
            1799            2151     207.448E-03     210.310E-03
            1783            2151     207.448E-03     210.310E-03
            1800            2151     207.448E-03     210.310E-03
            1784            2152     197.226E-03     199.792E-03
            1801            2152     197.226E-03     199.792E-03
            1783            2152     197.226E-03     199.792E-03
            1800            2152     197.226E-03     199.792E-03
            1784            2153     187.375E-03     189.743E-03
            1802            2153     187.375E-03     189.743E-03
            1785            2153     187.375E-03     189.743E-03
            1801            2153     187.375E-03     189.743E-03
            1803            2154     177.954E-03     180.142E-03
            1785            2154     177.954E-03     180.142E-03
            1802            2154     177.954E-03     180.142E-03
            1786            2154     177.954E-03     180.142E-03
            1786            2155     169.003E-03     171.037E-03
            1803            2155     169.003E-03     171.037E-03
            1804            2155     169.003E-03     171.037E-03
            1787            2155     169.003E-03     171.037E-03
            1788            2156     160.655E-03     162.570E-03
            1804            2156     160.655E-03     162.570E-03
            1805            2156     160.655E-03     162.570E-03
            1787            2156     160.655E-03     162.570E-03
            1788            2157     153.050E-03     154.848E-03
            1805            2157     153.050E-03     154.848E-03
            1789            2157     153.050E-03     154.848E-03
            1806            2157     153.050E-03     154.848E-03
            1789            2158     146.402E-03     148.177E-03
            1790            2158     146.402E-03     148.177E-03
            1806            2158     146.402E-03     148.177E-03
            1807            2158     146.402E-03     148.177E-03
            1791            2159     140.755E-03     142.571E-03
            1807            2159     140.755E-03     142.571E-03
            1808            2159     140.755E-03     142.571E-03
            1790            2159     140.755E-03     142.571E-03
            1792            2160     135.746E-03     138.209E-03
            1808            2160     135.746E-03     138.209E-03
            1809            2160     135.746E-03     138.209E-03
            1791            2160     135.746E-03     138.209E-03
            1793            2161     128.093E-03     130.333E-03
            1792            2161     128.093E-03     130.333E-03
            1810            2161     128.093E-03     130.333E-03
            1809            2161     128.093E-03     130.333E-03
            1794            2162     109.013E-03     107.775E-03
            1793            2162     109.013E-03     107.775E-03
            1811            2162     109.013E-03     107.775E-03
            1810            2162     109.013E-03     107.775E-03
            1813            2163     257.486E-03     262.718E-03
            1812            2163     257.486E-03     262.718E-03
            1795            2163     257.486E-03     262.718E-03
            1796            2163     257.486E-03     262.718E-03
            1813            2164     245.144E-03     252.169E-03
            1797            2164     245.144E-03     252.169E-03
            1814            2164     245.144E-03     252.169E-03
            1796            2164     245.144E-03     252.169E-03
            1815            2165     229.654E-03     237.082E-03
            1798            2165     229.654E-03     237.082E-03
            1814            2165     229.654E-03     237.082E-03
            1797            2165     229.654E-03     237.082E-03
            1816            2166     216.207E-03     223.573E-03
            1798            2166     216.207E-03     223.573E-03
            1799            2166     216.207E-03     223.573E-03
            1815            2166     216.207E-03     223.573E-03
            1800            2167     203.893E-03     211.059E-03
            1817            2167     203.893E-03     211.059E-03
            1816            2167     203.893E-03     211.059E-03
            1799            2167     203.893E-03     211.059E-03
            1800            2168     192.069E-03     199.487E-03
            1818            2168     192.069E-03     199.487E-03
            1817            2168     192.069E-03     199.487E-03
            1801            2168     192.069E-03     199.487E-03
            1818            2169     181.021E-03     188.588E-03
            1802            2169     181.021E-03     188.588E-03
            1819            2169     181.021E-03     188.588E-03
            1801            2169     181.021E-03     188.588E-03
            1819            2170     170.550E-03     178.274E-03
            1803            2170     170.550E-03     178.274E-03
            1820            2170     170.550E-03     178.274E-03
            1802            2170     170.550E-03     178.274E-03
            1803            2171     160.787E-03     168.593E-03
            1821            2171     160.787E-03     168.593E-03
            1804            2171     160.787E-03     168.593E-03
            1820            2171     160.787E-03     168.593E-03
            1821            2172     151.771E-03     159.551E-03
            1804            2172     151.771E-03     159.551E-03
            1805            2172     151.771E-03     159.551E-03
            1822            2172     151.771E-03     159.551E-03
            1806            2173     143.659E-03     151.314E-03
            1805            2173     143.659E-03     151.314E-03
            1822            2173     143.659E-03     151.314E-03
            1823            2173     143.659E-03     151.314E-03
            1824            2174     136.769E-03     144.074E-03
            1806            2174     136.769E-03     144.074E-03
            1823            2174     136.769E-03     144.074E-03
            1807            2174     136.769E-03     144.074E-03
            1808            2175     130.847E-03     137.767E-03
            1807            2175     130.847E-03     137.767E-03
            1825            2175     130.847E-03     137.767E-03
            1824            2175     130.847E-03     137.767E-03
            1808            2176     125.965E-03     132.572E-03
            1825            2176     125.965E-03     132.572E-03
            1809            2176     125.965E-03     132.572E-03
            1826            2176     125.965E-03     132.572E-03
            1810            2177     118.276E-03     121.536E-03
            1809            2177     118.276E-03     121.536E-03
            1827            2177     118.276E-03     121.536E-03
            1826            2177     118.276E-03     121.536E-03
            1827            2178     99.3158E-03     94.8183E-03
            1811            2178     99.3158E-03     94.8183E-03
            1828            2178     99.3158E-03     94.8183E-03
            1810            2178     99.3158E-03     94.8183E-03
            1812            2179     266.193E-03     270.303E-03
            1830            2179     266.193E-03     270.303E-03
            1829            2179     266.193E-03     270.303E-03
            1813            2179     266.193E-03     270.303E-03
            1813            2180     243.682E-03     251.405E-03
            1830            2180     243.682E-03     251.405E-03
            1831            2180     243.682E-03     251.405E-03
            1814            2180     243.682E-03     251.405E-03
            1815            2181     225.911E-03     235.178E-03
            1831            2181     225.911E-03     235.178E-03
            1832            2181     225.911E-03     235.178E-03
            1814            2181     225.911E-03     235.178E-03
            1815            2182     211.752E-03     221.882E-03
            1816            2182     211.752E-03     221.882E-03
            1832            2182     211.752E-03     221.882E-03
            1833            2182     211.752E-03     221.882E-03
            1834            2183     198.291E-03     209.267E-03
            1833            2183     198.291E-03     209.267E-03
            1816            2183     198.291E-03     209.267E-03
            1817            2183     198.291E-03     209.267E-03
            1834            2184     185.872E-03     197.577E-03
            1818            2184     185.872E-03     197.577E-03
            1817            2184     185.872E-03     197.577E-03
            1835            2184     185.872E-03     197.577E-03
            1819            2185     174.016E-03     186.384E-03
            1818            2185     174.016E-03     186.384E-03
            1835            2185     174.016E-03     186.384E-03
            1836            2185     174.016E-03     186.384E-03
            1836            2186     162.914E-03     175.809E-03
            1820            2186     162.914E-03     175.809E-03
            1837            2186     162.914E-03     175.809E-03
            1819            2186     162.914E-03     175.809E-03
            1838            2187     152.522E-03     165.745E-03
            1821            2187     152.522E-03     165.745E-03
            1820            2187     152.522E-03     165.745E-03
            1837            2187     152.522E-03     165.745E-03
            1838            2188     142.962E-03     156.314E-03
            1822            2188     142.962E-03     156.314E-03
            1839            2188     142.962E-03     156.314E-03
            1821            2188     142.962E-03     156.314E-03
            1839            2189     134.331E-03     147.531E-03
            1822            2189     134.331E-03     147.531E-03
            1840            2189     134.331E-03     147.531E-03
            1823            2189     134.331E-03     147.531E-03
            1824            2190     126.655E-03     139.373E-03
            1841            2190     126.655E-03     139.373E-03
            1840            2190     126.655E-03     139.373E-03
            1823            2190     126.655E-03     139.373E-03
            1824            2191     120.066E-03     131.791E-03
            1825            2191     120.066E-03     131.791E-03
            1841            2191     120.066E-03     131.791E-03
            1842            2191     120.066E-03     131.791E-03
            1825            2192     113.073E-03     122.845E-03
            1843            2192     113.073E-03     122.845E-03
            1826            2192     113.073E-03     122.845E-03
            1842            2192     113.073E-03     122.845E-03
            1844            2193     105.645E-03     111.812E-03
            1826            2193     105.645E-03     111.812E-03
            1827            2193     105.645E-03     111.812E-03
            1843            2193     105.645E-03     111.812E-03
            1844            2194     93.5152E-03     92.9485E-03
            1827            2194     93.5152E-03     92.9485E-03
            1845            2194     93.5152E-03     92.9485E-03
            1828            2194     93.5152E-03     92.9485E-03
            1864            2195     20.3411E-03     30.4260E-03
            1863            2195     20.3411E-03     30.4260E-03
            1846            2195     20.3411E-03     30.4260E-03
            1847            2195     20.3411E-03     30.4260E-03
            1848            2196     30.0634E-03     40.5361E-03
            1865            2196     30.0634E-03     40.5361E-03
            1847            2196     30.0634E-03     40.5361E-03
            1864            2196     30.0634E-03     40.5361E-03
            1866            2197     41.3382E-03     52.3667E-03
            1849            2197     41.3382E-03     52.3667E-03
            1848            2197     41.3382E-03     52.3667E-03
            1865            2197     41.3382E-03     52.3667E-03
            1867            2198     52.8993E-03     64.0210E-03
            1850            2198     52.8993E-03     64.0210E-03
            1849            2198     52.8993E-03     64.0210E-03
            1866            2198     52.8993E-03     64.0210E-03
            1868            2199     64.7110E-03     75.7352E-03
            1850            2199     64.7110E-03     75.7352E-03
            1851            2199     64.7110E-03     75.7352E-03
            1867            2199     64.7110E-03     75.7352E-03
            1868            2200     76.4581E-03     87.4580E-03
            1852            2200     76.4581E-03     87.4580E-03
            1851            2200     76.4581E-03     87.4580E-03
            1869            2200     76.4581E-03     87.4580E-03
            1852            2201     88.2026E-03     99.2049E-03
            1853            2201     88.2026E-03     99.2049E-03
            1870            2201     88.2026E-03     99.2049E-03
            1869            2201     88.2026E-03     99.2049E-03
            1870            2202     99.9690E-03     110.925E-03
            1854            2202     99.9690E-03     110.925E-03
            1853            2202     99.9690E-03     110.925E-03
            1871            2202     99.9690E-03     110.925E-03
            1871            2203     111.689E-03     122.657E-03
            1872            2203     111.689E-03     122.657E-03
            1855            2203     111.689E-03     122.657E-03
            1854            2203     111.689E-03     122.657E-03
            1855            2204     123.451E-03     134.356E-03
            1872            2204     123.451E-03     134.356E-03
            1873            2204     123.451E-03     134.356E-03
            1856            2204     123.451E-03     134.356E-03
            1857            2205     135.093E-03     146.023E-03
            1856            2205     135.093E-03     146.023E-03
            1873            2205     135.093E-03     146.023E-03
            1874            2205     135.093E-03     146.023E-03
            1857            2206     146.775E-03     157.600E-03
            1875            2206     146.775E-03     157.600E-03
            1858            2206     146.775E-03     157.600E-03
            1874            2206     146.775E-03     157.600E-03
            1876            2207     158.124E-03     168.992E-03
            1875            2207     158.124E-03     168.992E-03
            1859            2207     158.124E-03     168.992E-03
            1858            2207     158.124E-03     168.992E-03
            1859            2208     169.867E-03     180.377E-03
            1877            2208     169.867E-03     180.377E-03
            1876            2208     169.867E-03     180.377E-03
            1860            2208     169.867E-03     180.377E-03
            1861            2209     182.435E-03     192.792E-03
            1878            2209     182.435E-03     192.792E-03
            1877            2209     182.435E-03     192.792E-03
            1860            2209     182.435E-03     192.792E-03
            1879            2210     204.636E-03     216.970E-03
            1861            2210     204.636E-03     216.970E-03
            1862            2210     204.636E-03     216.970E-03
            1878            2210     204.636E-03     216.970E-03
            1864            2211     22.1755E-03     31.4180E-03
            1881            2211     22.1755E-03     31.4180E-03
            1863            2211     22.1755E-03     31.4180E-03
            1880            2211     22.1755E-03     31.4180E-03
            1864            2212     27.7303E-03     40.5387E-03
            1882            2212     27.7303E-03     40.5387E-03
            1865            2212     27.7303E-03     40.5387E-03
            1881            2212     27.7303E-03     40.5387E-03
            1865            2213     37.8267E-03     50.7634E-03
            1882            2213     37.8267E-03     50.7634E-03
            1866            2213     37.8267E-03     50.7634E-03
            1883            2213     37.8267E-03     50.7634E-03
            1883            2214     48.4967E-03     61.5304E-03
            1866            2214     48.4967E-03     61.5304E-03
            1867            2214     48.4967E-03     61.5304E-03
            1884            2214     48.4967E-03     61.5304E-03
            1885            2215     59.2800E-03     72.3981E-03
            1867            2215     59.2800E-03     72.3981E-03
            1868            2215     59.2800E-03     72.3981E-03
            1884            2215     59.2800E-03     72.3981E-03
            1885            2216     70.1625E-03     83.2389E-03
            1868            2216     70.1625E-03     83.2389E-03
            1869            2216     70.1625E-03     83.2389E-03
            1886            2216     70.1625E-03     83.2389E-03
            1869            2217     81.0315E-03     94.1182E-03
            1870            2217     81.0315E-03     94.1182E-03
            1886            2217     81.0315E-03     94.1182E-03
            1887            2217     81.0315E-03     94.1182E-03
            1870            2218     91.9324E-03     104.981E-03
            1871            2218     91.9324E-03     104.981E-03
            1887            2218     91.9324E-03     104.981E-03
            1888            2218     91.9324E-03     104.981E-03
            1888            2219     102.843E-03     115.894E-03
            1872            2219     102.843E-03     115.894E-03
            1889            2219     102.843E-03     115.894E-03
            1871            2219     102.843E-03     115.894E-03
            1873            2220     113.749E-03     126.741E-03
            1890            2220     113.749E-03     126.741E-03
            1872            2220     113.749E-03     126.741E-03
            1889            2220     113.749E-03     126.741E-03
            1891            2221     124.686E-03     137.668E-03
            1873            2221     124.686E-03     137.668E-03
            1874            2221     124.686E-03     137.668E-03
            1890            2221     124.686E-03     137.668E-03
            1874            2222     135.461E-03     148.414E-03
            1892            2222     135.461E-03     148.414E-03
            1875            2222     135.461E-03     148.414E-03
            1891            2222     135.461E-03     148.414E-03
            1875            2223     146.381E-03     159.178E-03
            1892            2223     146.381E-03     159.178E-03
            1876            2223     146.381E-03     159.178E-03
            1893            2223     146.381E-03     159.178E-03
            1893            2224     156.856E-03     169.781E-03
            1877            2224     156.856E-03     169.781E-03
            1894            2224     156.856E-03     169.781E-03
            1876            2224     156.856E-03     169.781E-03
            1877            2225     170.351E-03     183.427E-03
            1878            2225     170.351E-03     183.427E-03
            1894            2225     170.351E-03     183.427E-03
            1895            2225     170.351E-03     183.427E-03
            1895            2226     199.056E-03     209.425E-03
            1879            2226     199.056E-03     209.425E-03
            1878            2226     199.056E-03     209.425E-03
            1896            2226     199.056E-03     209.425E-03
            1881            2227     30.3830E-03     32.2433E-03
            1897            2227     30.3830E-03     32.2433E-03
            1880            2227     30.3830E-03     32.2433E-03
            1898            2227     30.3830E-03     32.2433E-03
            1899            2228     35.6123E-03     39.3830E-03
            1882            2228     35.6123E-03     39.3830E-03
            1898            2228     35.6123E-03     39.3830E-03
            1881            2228     35.6123E-03     39.3830E-03
            1899            2229     45.0358E-03     48.3453E-03
            1900            2229     45.0358E-03     48.3453E-03
            1882            2229     45.0358E-03     48.3453E-03
            1883            2229     45.0358E-03     48.3453E-03
            1900            2230     55.3356E-03     58.6556E-03
            1884            2230     55.3356E-03     58.6556E-03
            1901            2230     55.3356E-03     58.6556E-03
            1883            2230     55.3356E-03     58.6556E-03
            1902            2231     65.6991E-03     69.1762E-03
            1884            2231     65.6991E-03     69.1762E-03
            1901            2231     65.6991E-03     69.1762E-03
            1885            2231     65.6991E-03     69.1762E-03
            1885            2232     76.2957E-03     79.8104E-03
            1903            2232     76.2957E-03     79.8104E-03
            1902            2232     76.2957E-03     79.8104E-03
            1886            2232     76.2957E-03     79.8104E-03
            1886            2233     86.9948E-03     90.5026E-03
            1887            2233     86.9948E-03     90.5026E-03
            1903            2233     86.9948E-03     90.5026E-03
            1904            2233     86.9948E-03     90.5026E-03
            1887            2234     97.7535E-03     101.283E-03
            1905            2234     97.7535E-03     101.283E-03
            1888            2234     97.7535E-03     101.283E-03
            1904            2234     97.7535E-03     101.283E-03
            1906            2235     108.577E-03     112.087E-03
            1905            2235     108.577E-03     112.087E-03
            1889            2235     108.577E-03     112.087E-03
            1888            2235     108.577E-03     112.087E-03
            1890            2236     119.436E-03     122.971E-03
            1907            2236     119.436E-03     122.971E-03
            1906            2236     119.436E-03     122.971E-03
            1889            2236     119.436E-03     122.971E-03
            1891            2237     130.364E-03     133.862E-03
            1890            2237     130.364E-03     133.862E-03
            1908            2237     130.364E-03     133.862E-03
            1907            2237     130.364E-03     133.862E-03
            1908            2238     141.387E-03     144.903E-03
            1891            2238     141.387E-03     144.903E-03
            1909            2238     141.387E-03     144.903E-03
            1892            2238     141.387E-03     144.903E-03
            1910            2239     152.547E-03     156.138E-03
            1893            2239     152.547E-03     156.138E-03
            1909            2239     152.547E-03     156.138E-03
            1892            2239     152.547E-03     156.138E-03
            1893            2240     163.898E-03     167.683E-03
            1911            2240     163.898E-03     167.683E-03
            1910            2240     163.898E-03     167.683E-03
            1894            2240     163.898E-03     167.683E-03
            1911            2241     176.534E-03     180.539E-03
            1912            2241     176.534E-03     180.539E-03
            1895            2241     176.534E-03     180.539E-03
            1894            2241     176.534E-03     180.539E-03
            1912            2242     189.512E-03     191.497E-03
            1913            2242     189.512E-03     191.497E-03
            1896            2242     189.512E-03     191.497E-03
            1895            2242     189.512E-03     191.497E-03
            1897            2243     36.1120E-03     35.8990E-03
            1915            2243     36.1120E-03     35.8990E-03
            1898            2243     36.1120E-03     35.8990E-03
            1914            2243     36.1120E-03     35.8990E-03
            1898            2244     43.8733E-03     39.6263E-03
            1916            2244     43.8733E-03     39.6263E-03
            1915            2244     43.8733E-03     39.6263E-03
            1899            2244     43.8733E-03     39.6263E-03
            1916            2245     52.7210E-03     47.5903E-03
            1900            2245     52.7210E-03     47.5903E-03
            1917            2245     52.7210E-03     47.5903E-03
            1899            2245     52.7210E-03     47.5903E-03
            1917            2246     62.3548E-03     56.9077E-03
            1901            2246     62.3548E-03     56.9077E-03
            1918            2246     62.3548E-03     56.9077E-03
            1900            2246     62.3548E-03     56.9077E-03
            1901            2247     72.4563E-03     66.7978E-03
            1918            2247     72.4563E-03     66.7978E-03
            1902            2247     72.4563E-03     66.7978E-03
            1919            2247     72.4563E-03     66.7978E-03
            1920            2248     82.7391E-03     77.0046E-03
            1902            2248     82.7391E-03     77.0046E-03
            1903            2248     82.7391E-03     77.0046E-03
            1919            2248     82.7391E-03     77.0046E-03
            1921            2249     93.1955E-03     87.4116E-03
            1920            2249     93.1955E-03     87.4116E-03
            1904            2249     93.1955E-03     87.4116E-03
            1903            2249     93.1955E-03     87.4116E-03
            1904            2250     103.743E-03     97.9115E-03
            1905            2250     103.743E-03     97.9115E-03
            1921            2250     103.743E-03     97.9115E-03
            1922            2250     103.743E-03     97.9115E-03
            1923            2251     114.305E-03     108.482E-03
            1906            2251     114.305E-03     108.482E-03
            1905            2251     114.305E-03     108.482E-03
            1922            2251     114.305E-03     108.482E-03
            1906            2252     124.922E-03     119.069E-03
            1907            2252     124.922E-03     119.069E-03
            1923            2252     124.922E-03     119.069E-03
            1924            2252     124.922E-03     119.069E-03
            1907            2253     135.443E-03     129.637E-03
            1924            2253     135.443E-03     129.637E-03
            1925            2253     135.443E-03     129.637E-03
            1908            2253     135.443E-03     129.637E-03
            1926            2254     146.106E-03     140.218E-03
            1925            2254     146.106E-03     140.218E-03
            1909            2254     146.106E-03     140.218E-03
            1908            2254     146.106E-03     140.218E-03
            1909            2255     156.538E-03     150.809E-03
            1926            2255     156.538E-03     150.809E-03
            1927            2255     156.538E-03     150.809E-03
            1910            2255     156.538E-03     150.809E-03
            1927            2256     167.333E-03     161.361E-03
            1911            2256     167.333E-03     161.361E-03
            1910            2256     167.333E-03     161.361E-03
            1928            2256     167.333E-03     161.361E-03
            1928            2257     175.050E-03     168.952E-03
            1929            2257     175.050E-03     168.952E-03
            1912            2257     175.050E-03     168.952E-03
            1911            2257     175.050E-03     168.952E-03
            1913            2258     170.277E-03     166.557E-03
            1929            2258     170.277E-03     166.557E-03
            1930            2258     170.277E-03     166.557E-03
            1912            2258     170.277E-03     166.557E-03
            1937            2259     121.148E-03     124.310E-03
            1931            2259     121.148E-03     124.310E-03
            1932            2259     121.148E-03     124.310E-03
            1936            2259     121.148E-03     124.310E-03
            1932            2260     153.892E-03     165.527E-03
            1937            2260     153.892E-03     165.527E-03
            1933            2260     153.892E-03     165.527E-03
            1938            2260     153.892E-03     165.527E-03
            1933            2261     184.427E-03     207.210E-03
            1938            2261     184.427E-03     207.210E-03
            1934            2261     184.427E-03     207.210E-03
            1939            2261     184.427E-03     207.210E-03
            1940            2262     217.776E-03     243.607E-03
            1935            2262     217.776E-03     243.607E-03
            1934            2262     217.776E-03     243.607E-03
            1939            2262     217.776E-03     243.607E-03
            1941            2263     141.937E-03     139.086E-03
            1936            2263     141.937E-03     139.086E-03
            1942            2263     141.937E-03     139.086E-03
            1937            2263     141.937E-03     139.086E-03
            1938            2264     170.060E-03     166.361E-03
            1937            2264     170.060E-03     166.361E-03
            1942            2264     170.060E-03     166.361E-03
            1943            2264     170.060E-03     166.361E-03
            1939            2265     196.663E-03     196.740E-03
            1944            2265     196.663E-03     196.740E-03
            1938            2265     196.663E-03     196.740E-03
            1943            2265     196.663E-03     196.740E-03
            1945            2266     227.917E-03     230.202E-03
            1939            2266     227.917E-03     230.202E-03
            1944            2266     227.917E-03     230.202E-03
            1940            2266     227.917E-03     230.202E-03
            1946            2267     141.020E-03     138.031E-03
            1942            2267     141.020E-03     138.031E-03
            1947            2267     141.020E-03     138.031E-03
            1941            2267     141.020E-03     138.031E-03
            1947            2268     168.505E-03     157.825E-03
            1943            2268     168.505E-03     157.825E-03
            1948            2268     168.505E-03     157.825E-03
            1942            2268     168.505E-03     157.825E-03
            1943            2269     193.185E-03     179.001E-03
            1944            2269     193.185E-03     179.001E-03
            1949            2269     193.185E-03     179.001E-03
            1948            2269     193.185E-03     179.001E-03
            1949            2270     206.992E-03     192.707E-03
            1944            2270     206.992E-03     192.707E-03
            1950            2270     206.992E-03     192.707E-03
            1945            2270     206.992E-03     192.707E-03
            1951            2271     130.957E-03     133.438E-03
            1947            2271     130.957E-03     133.438E-03
            1952            2271     130.957E-03     133.438E-03
            1946            2271     130.957E-03     133.438E-03
            1952            2272     143.590E-03     148.291E-03
            1953            2272     143.590E-03     148.291E-03
            1947            2272     143.590E-03     148.291E-03
            1948            2272     143.590E-03     148.291E-03
            1949            2273     158.316E-03     167.733E-03
            1953            2273     158.316E-03     167.733E-03
            1948            2273     158.316E-03     167.733E-03
            1954            2273     158.316E-03     167.733E-03
            1950            2274     162.109E-03     169.280E-03
            1949            2274     162.109E-03     169.280E-03
            1954            2274     162.109E-03     169.280E-03
            1955            2274     162.109E-03     169.280E-03
            1956            2275     13.1035E-03     15.7703E-03
            1962            2275     13.1035E-03     15.7703E-03
            1961            2275     13.1035E-03     15.7703E-03
            1957            2275     13.1035E-03     15.7703E-03
            1962            2276     21.5613E-03     21.9202E-03
            1957            2276     21.5613E-03     21.9202E-03
            1963            2276     21.5613E-03     21.9202E-03
            1958            2276     21.5613E-03     21.9202E-03
            1963            2277     30.4655E-03     30.5226E-03
            1964            2277     30.4655E-03     30.5226E-03
            1958            2277     30.4655E-03     30.5226E-03
            1959            2277     30.4655E-03     30.5226E-03
            1964            2278     37.7314E-03     37.3581E-03
            1960            2278     37.7314E-03     37.3581E-03
            1959            2278     37.7314E-03     37.3581E-03
            1965            2278     37.7314E-03     37.3581E-03
            1966            2279     12.8733E-03     15.0918E-03
            1967            2279     12.8733E-03     15.0918E-03
            1961            2279     12.8733E-03     15.0918E-03
            1962            2279     12.8733E-03     15.0918E-03
            1968            2280     21.9893E-03     22.6829E-03
            1963            2280     21.9893E-03     22.6829E-03
            1967            2280     21.9893E-03     22.6829E-03
            1962            2280     21.9893E-03     22.6829E-03
            1969            2281     31.0531E-03     31.3812E-03
            1964            2281     31.0531E-03     31.3812E-03
            1963            2281     31.0531E-03     31.3812E-03
            1968            2281     31.0531E-03     31.3812E-03
            1969            2282     38.8230E-03     38.4827E-03
            1970            2282     38.8230E-03     38.4827E-03
            1965            2282     38.8230E-03     38.4827E-03
            1964            2282     38.8230E-03     38.4827E-03
            1966            2283     12.6753E-03     14.7470E-03
            1971            2283     12.6753E-03     14.7470E-03
            1967            2283     12.6753E-03     14.7470E-03
            1972            2283     12.6753E-03     14.7470E-03
            1972            2284     23.4873E-03     24.6605E-03
            1967            2284     23.4873E-03     24.6605E-03
            1968            2284     23.4873E-03     24.6605E-03
            1973            2284     23.4873E-03     24.6605E-03
            1973            2285     32.8903E-03     33.4421E-03
            1969            2285     32.8903E-03     33.4421E-03
            1968            2285     32.8903E-03     33.4421E-03
            1974            2285     32.8903E-03     33.4421E-03
            1969            2286     40.7123E-03     40.4147E-03
            1975            2286     40.7123E-03     40.4147E-03
            1974            2286     40.7123E-03     40.4147E-03
            1970            2286     40.7123E-03     40.4147E-03
            1972            2287     21.0329E-03     20.3697E-03
            1976            2287     21.0329E-03     20.3697E-03
            1977            2287     21.0329E-03     20.3697E-03
            1971            2287     21.0329E-03     20.3697E-03
            1972            2288     27.3332E-03     27.1094E-03
            1978            2288     27.3332E-03     27.1094E-03
            1973            2288     27.3332E-03     27.1094E-03
            1977            2288     27.3332E-03     27.1094E-03
            1973            2289     35.2463E-03     35.3197E-03
            1979            2289     35.2463E-03     35.3197E-03
            1978            2289     35.2463E-03     35.3197E-03
            1974            2289     35.2463E-03     35.3197E-03
            1979            2290     41.5044E-03     41.1041E-03
            1980            2290     41.5044E-03     41.1041E-03
            1975            2290     41.5044E-03     41.1041E-03
            1974            2290     41.5044E-03     41.1041E-03
            1981            2291     29.1924E-03     31.7172E-03
            1982            2291     29.1924E-03     31.7172E-03
            1976            2291     29.1924E-03     31.7172E-03
            1977            2291     29.1924E-03     31.7172E-03
            1978            2292     31.4261E-03     34.0693E-03
            1983            2292     31.4261E-03     34.0693E-03
            1977            2292     31.4261E-03     34.0693E-03
            1982            2292     31.4261E-03     34.0693E-03
            1983            2293     37.2939E-03     38.8325E-03
            1984            2293     37.2939E-03     38.8325E-03
            1978            2293     37.2939E-03     38.8325E-03
            1979            2293     37.2939E-03     38.8325E-03
            1985            2294     41.9401E-03     42.5244E-03
            1984            2294     41.9401E-03     42.5244E-03
            1980            2294     41.9401E-03     42.5244E-03
            1979            2294     41.9401E-03     42.5244E-03
            1981            2295     43.4653E-03     41.9688E-03
            1982            2295     43.4653E-03     41.9688E-03
            1987            2295     43.4653E-03     41.9688E-03
            1986            2295     43.4653E-03     41.9688E-03
            1987            2296     42.1491E-03     39.9685E-03
            1983            2296     42.1491E-03     39.9685E-03
            1988            2296     42.1491E-03     39.9685E-03
            1982            2296     42.1491E-03     39.9685E-03
            1988            2297     43.3752E-03     41.2768E-03
            1984            2297     43.3752E-03     41.2768E-03
            1983            2297     43.3752E-03     41.2768E-03
            1989            2297     43.3752E-03     41.2768E-03
            1989            2298     44.3983E-03     43.8062E-03
            1984            2298     44.3983E-03     43.8062E-03
            1985            2298     44.3983E-03     43.8062E-03
            1990            2298     44.3983E-03     43.8062E-03
            1987            2299     53.4789E-03     53.2451E-03
            1986            2299     53.4789E-03     53.2451E-03
            1991            2299     53.4789E-03     53.2451E-03
            1992            2299     53.4789E-03     53.2451E-03
            1988            2300     47.2012E-03     46.6097E-03
            1993            2300     47.2012E-03     46.6097E-03
            1992            2300     47.2012E-03     46.6097E-03
            1987            2300     47.2012E-03     46.6097E-03
            1993            2301     45.9381E-03     44.4313E-03
            1988            2301     45.9381E-03     44.4313E-03
            1994            2301     45.9381E-03     44.4313E-03
            1989            2301     45.9381E-03     44.4313E-03
            1989            2302     45.2235E-03     44.1482E-03
            1994            2302     45.2235E-03     44.1482E-03
            1995            2302     45.2235E-03     44.1482E-03
            1990            2302     45.2235E-03     44.1482E-03
            1991            2303     45.7895E-03     53.0920E-03
            1996            2303     45.7895E-03     53.0920E-03
            1997            2303     45.7895E-03     53.0920E-03
            1992            2303     45.7895E-03     53.0920E-03
            1993            2304     42.6081E-03     50.3140E-03
            1992            2304     42.6081E-03     50.3140E-03
            1997            2304     42.6081E-03     50.3140E-03
            1998            2304     42.6081E-03     50.3140E-03
            1993            2305     42.4291E-03     45.8819E-03
            1994            2305     42.4291E-03     45.8819E-03
            1998            2305     42.4291E-03     45.8819E-03
            1999            2305     42.4291E-03     45.8819E-03
            1995            2306     43.9428E-03     44.3363E-03
            1999            2306     43.9428E-03     44.3363E-03
            1994            2306     43.9428E-03     44.3363E-03
            2000            2306     43.9428E-03     44.3363E-03
            1996            2307     45.9067E-03     44.5150E-03
            2002            2307     45.9067E-03     44.5150E-03
            1997            2307     45.9067E-03     44.5150E-03
            2001            2307     45.9067E-03     44.5150E-03
            1998            2308     46.9008E-03     47.4297E-03
            1997            2308     46.9008E-03     47.4297E-03
            2002            2308     46.9008E-03     47.4297E-03
            2003            2308     46.9008E-03     47.4297E-03
            1998            2309     44.7871E-03     45.2143E-03
            2003            2309     44.7871E-03     45.2143E-03
            1999            2309     44.7871E-03     45.2143E-03
            2004            2309     44.7871E-03     45.2143E-03
            2004            2310     45.2459E-03     44.7548E-03
            1999            2310     45.2459E-03     44.7548E-03
            2005            2310     45.2459E-03     44.7548E-03
            2000            2310     45.2459E-03     44.7548E-03
            2006            2311     52.3719E-03     53.8165E-03
            2002            2311     52.3719E-03     53.8165E-03
            2007            2311     52.3719E-03     53.8165E-03
            2001            2311     52.3719E-03     53.8165E-03
            2007            2312     51.4038E-03     53.1717E-03
            2008            2312     51.4038E-03     53.1717E-03
            2002            2312     51.4038E-03     53.1717E-03
            2003            2312     51.4038E-03     53.1717E-03
            2008            2313     49.3194E-03     50.1563E-03
            2004            2313     49.3194E-03     50.1563E-03
            2009            2313     49.3194E-03     50.1563E-03
            2003            2313     49.3194E-03     50.1563E-03
            2004            2314     47.2451E-03     47.0637E-03
            2010            2314     47.2451E-03     47.0637E-03
            2009            2314     47.2451E-03     47.0637E-03
            2005            2314     47.2451E-03     47.0637E-03
            2006            2315     62.4764E-03     61.9855E-03
            2012            2315     62.4764E-03     61.9855E-03
            2011            2315     62.4764E-03     61.9855E-03
            2007            2315     62.4764E-03     61.9855E-03
            2012            2316     57.8361E-03     57.5645E-03
            2013            2316     57.8361E-03     57.5645E-03
            2007            2316     57.8361E-03     57.5645E-03
            2008            2316     57.8361E-03     57.5645E-03
            2008            2317     54.0653E-03     53.3564E-03
            2009            2317     54.0653E-03     53.3564E-03
            2013            2317     54.0653E-03     53.3564E-03
            2014            2317     54.0653E-03     53.3564E-03
            2009            2318     49.7576E-03     49.1160E-03
            2010            2318     49.7576E-03     49.1160E-03
            2015            2318     49.7576E-03     49.1160E-03
            2014            2318     49.7576E-03     49.1160E-03
            2012            2319     70.1413E-03     75.5489E-03
            2016            2319     70.1413E-03     75.5489E-03
            2017            2319     70.1413E-03     75.5489E-03
            2011            2319     70.1413E-03     75.5489E-03
            2013            2320     62.8431E-03     68.2832E-03
            2017            2320     62.8431E-03     68.2832E-03
            2012            2320     62.8431E-03     68.2832E-03
            2018            2320     62.8431E-03     68.2832E-03
            2014            2321     57.3056E-03     59.7457E-03
            2013            2321     57.3056E-03     59.7457E-03
            2019            2321     57.3056E-03     59.7457E-03
            2018            2321     57.3056E-03     59.7457E-03
            2019            2322     50.8693E-03     52.1344E-03
            2015            2322     50.8693E-03     52.1344E-03
            2014            2322     50.8693E-03     52.1344E-03
            2020            2322     50.8693E-03     52.1344E-03
            2022            2323     87.9037E-03     86.0052E-03
            2017            2323     87.9037E-03     86.0052E-03
            2021            2323     87.9037E-03     86.0052E-03
            2016            2323     87.9037E-03     86.0052E-03
            2023            2324     78.4429E-03     75.5947E-03
            2022            2324     78.4429E-03     75.5947E-03
            2017            2324     78.4429E-03     75.5947E-03
            2018            2324     78.4429E-03     75.5947E-03
            2018            2325     67.5799E-03     63.6196E-03
            2019            2325     67.5799E-03     63.6196E-03
            2024            2325     67.5799E-03     63.6196E-03
            2023            2325     67.5799E-03     63.6196E-03
            2024            2326     55.2739E-03     54.1427E-03
            2019            2326     55.2739E-03     54.1427E-03
            2025            2326     55.2739E-03     54.1427E-03
            2020            2326     55.2739E-03     54.1427E-03
            2021            2327     99.3829E-03     98.3174E-03
            2027            2327     99.3829E-03     98.3174E-03
            2026            2327     99.3829E-03     98.3174E-03
            2022            2327     99.3829E-03     98.3174E-03
            2023            2328     84.9080E-03     83.4254E-03
            2027            2328     84.9080E-03     83.4254E-03
            2028            2328     84.9080E-03     83.4254E-03
            2022            2328     84.9080E-03     83.4254E-03
            2028            2329     70.6562E-03     67.6025E-03
            2024            2329     70.6562E-03     67.6025E-03
            2029            2329     70.6562E-03     67.6025E-03
            2023            2329     70.6562E-03     67.6025E-03
            2030            2330     56.0705E-03     54.1566E-03
            2024            2330     56.0705E-03     54.1566E-03
            2025            2330     56.0705E-03     54.1566E-03
            2029            2330     56.0705E-03     54.1566E-03
            2031            2331     86.6708E-03     100.378E-03
            2032            2331     86.6708E-03     100.378E-03
            2026            2331     86.6708E-03     100.378E-03
            2027            2331     86.6708E-03     100.378E-03
            2032            2332     74.1713E-03     89.5208E-03
            2033            2332     74.1713E-03     89.5208E-03
            2027            2332     74.1713E-03     89.5208E-03
            2028            2332     74.1713E-03     89.5208E-03
            2033            2333     62.2197E-03     70.3745E-03
            2034            2333     62.2197E-03     70.3745E-03
            2028            2333     62.2197E-03     70.3745E-03
            2029            2333     62.2197E-03     70.3745E-03
            2035            2334     52.2881E-03     54.3763E-03
            2030            2334     52.2881E-03     54.3763E-03
            2034            2334     52.2881E-03     54.3763E-03
            2029            2334     52.2881E-03     54.3763E-03
            2031            2335     89.4271E-03     88.8450E-03
            2036            2335     89.4271E-03     88.8450E-03
            2032            2335     89.4271E-03     88.8450E-03
            2037            2335     89.4271E-03     88.8450E-03
            2033            2336     83.1028E-03     83.6088E-03
            2038            2336     83.1028E-03     83.6088E-03
            2032            2336     83.1028E-03     83.6088E-03
            2037            2336     83.1028E-03     83.6088E-03
            2034            2337     68.5683E-03     67.9872E-03
            2039            2337     68.5683E-03     67.9872E-03
            2033            2337     68.5683E-03     67.9872E-03
            2038            2337     68.5683E-03     67.9872E-03
            2034            2338     55.4576E-03     54.7995E-03
            2040            2338     55.4576E-03     54.7995E-03
            2035            2338     55.4576E-03     54.7995E-03
            2039            2338     55.4576E-03     54.7995E-03
            2037            2339     98.2676E-03     94.7489E-03
            2042            2339     98.2676E-03     94.7489E-03
            2036            2339     98.2676E-03     94.7489E-03
            2041            2339     98.2676E-03     94.7489E-03
            2043            2340     89.8139E-03     86.7183E-03
            2037            2340     89.8139E-03     86.7183E-03
            2038            2340     89.8139E-03     86.7183E-03
            2042            2340     89.8139E-03     86.7183E-03
            2043            2341     75.5289E-03     72.7214E-03
            2038            2341     75.5289E-03     72.7214E-03
            2044            2341     75.5289E-03     72.7214E-03
            2039            2341     75.5289E-03     72.7214E-03
            2039            2342     59.3281E-03     57.6577E-03
            2044            2342     59.3281E-03     57.6577E-03
            2045            2342     59.3281E-03     57.6577E-03
            2040            2342     59.3281E-03     57.6577E-03
            2047            2343     100.166E-03     110.353E-03
            2041            2343     100.166E-03     110.353E-03
            2046            2343     100.166E-03     110.353E-03
            2042            2343     100.166E-03     110.353E-03
            2048            2344     87.9754E-03     98.7018E-03
            2042            2344     87.9754E-03     98.7018E-03
            2047            2344     87.9754E-03     98.7018E-03
            2043            2344     87.9754E-03     98.7018E-03
            2044            2345     75.7799E-03     81.4698E-03
            2048            2345     75.7799E-03     81.4698E-03
            2049            2345     75.7799E-03     81.4698E-03
            2043            2345     75.7799E-03     81.4698E-03
            2045            2346     59.9368E-03     62.6282E-03
            2044            2346     59.9368E-03     62.6282E-03
            2050            2346     59.9368E-03     62.6282E-03
            2049            2346     59.9368E-03     62.6282E-03
            2052            2347     123.320E-03     119.023E-03
            2047            2347     123.320E-03     119.023E-03
            2051            2347     123.320E-03     119.023E-03
            2046            2347     123.320E-03     119.023E-03
            2052            2348     109.023E-03     103.370E-03
            2047            2348     109.023E-03     103.370E-03
            2053            2348     109.023E-03     103.370E-03
            2048            2348     109.023E-03     103.370E-03
            2054            2349     89.5220E-03     83.5616E-03
            2049            2349     89.5220E-03     83.5616E-03
            2048            2349     89.5220E-03     83.5616E-03
            2053            2349     89.5220E-03     83.5616E-03
            2054            2350     65.7390E-03     64.3210E-03
            2055            2350     65.7390E-03     64.3210E-03
            2049            2350     65.7390E-03     64.3210E-03
            2050            2350     65.7390E-03     64.3210E-03
            2057            2351     135.214E-03     134.240E-03
            2056            2351     135.214E-03     134.240E-03
            2052            2351     135.214E-03     134.240E-03
            2051            2351     135.214E-03     134.240E-03
            2057            2352     114.991E-03     113.388E-03
            2053            2352     114.991E-03     113.388E-03
            2052            2352     114.991E-03     113.388E-03
            2058            2352     114.991E-03     113.388E-03
            2059            2353     91.9213E-03     87.9892E-03
            2053            2353     91.9213E-03     87.9892E-03
            2058            2353     91.9213E-03     87.9892E-03
            2054            2353     91.9213E-03     87.9892E-03
            2059            2354     66.0762E-03     63.7688E-03
            2055            2354     66.0762E-03     63.7688E-03
            2054            2354     66.0762E-03     63.7688E-03
            2060            2354     66.0762E-03     63.7688E-03
            2056            2355     120.778E-03     140.525E-03
            2057            2355     120.778E-03     140.525E-03
            2061            2355     120.778E-03     140.525E-03
            2062            2355     120.778E-03     140.525E-03
            2057            2356     101.584E-03     123.426E-03
            2063            2356     101.584E-03     123.426E-03
            2058            2356     101.584E-03     123.426E-03
            2062            2356     101.584E-03     123.426E-03
            2064            2357     80.6319E-03     92.4127E-03
            2059            2357     80.6319E-03     92.4127E-03
            2058            2357     80.6319E-03     92.4127E-03
            2063            2357     80.6319E-03     92.4127E-03
            2065            2358     60.7071E-03     64.1586E-03
            2059            2358     60.7071E-03     64.1586E-03
            2060            2358     60.7071E-03     64.1586E-03
            2064            2358     60.7071E-03     64.1586E-03
            2061            2359     128.084E-03     125.066E-03
            2067            2359     128.084E-03     125.066E-03
            2062            2359     128.084E-03     125.066E-03
            2066            2359     128.084E-03     125.066E-03
            2063            2360     115.117E-03     114.687E-03
            2067            2360     115.117E-03     114.687E-03
            2062            2360     115.117E-03     114.687E-03
            2068            2360     115.117E-03     114.687E-03
            2064            2361     89.9801E-03     88.7753E-03
            2069            2361     89.9801E-03     88.7753E-03
            2068            2361     89.9801E-03     88.7753E-03
            2063            2361     89.9801E-03     88.7753E-03
            2069            2362     65.4400E-03     63.9693E-03
            2064            2362     65.4400E-03     63.9693E-03
            2070            2362     65.4400E-03     63.9693E-03
            2065            2362     65.4400E-03     63.9693E-03
            2067            2363     132.533E-03     133.736E-03
            2072            2363     132.533E-03     133.736E-03
            2066            2363     132.533E-03     133.736E-03
            2071            2363     132.533E-03     133.736E-03
            2068            2364     119.687E-03     120.592E-03
            2072            2364     119.687E-03     120.592E-03
            2073            2364     119.687E-03     120.592E-03
            2067            2364     119.687E-03     120.592E-03
            2073            2365     97.5267E-03     96.2643E-03
            2068            2365     97.5267E-03     96.2643E-03
            2074            2365     97.5267E-03     96.2643E-03
            2069            2365     97.5267E-03     96.2643E-03
            2070            2366     70.2420E-03     68.9213E-03
            2069            2366     70.2420E-03     68.9213E-03
            2074            2366     70.2420E-03     68.9213E-03
            2075            2366     70.2420E-03     68.9213E-03
            2071            2367     139.088E-03     141.511E-03
            2077            2367     139.088E-03     141.511E-03
            2072            2367     139.088E-03     141.511E-03
            2076            2367     139.088E-03     141.511E-03
            2078            2368     121.688E-03     124.453E-03
            2073            2368     121.688E-03     124.453E-03
            2072            2368     121.688E-03     124.453E-03
            2077            2368     121.688E-03     124.453E-03
            2078            2369     100.456E-03     100.327E-03
            2073            2369     100.456E-03     100.327E-03
            2079            2369     100.456E-03     100.327E-03
            2074            2369     100.456E-03     100.327E-03
            2074            2370     73.4541E-03     72.7175E-03
            2075            2370     73.4541E-03     72.7175E-03
            2079            2370     73.4541E-03     72.7175E-03
            2080            2370     73.4541E-03     72.7175E-03
            2076            2371     147.240E-03     155.910E-03
            2077            2371     147.240E-03     155.910E-03
            2081            2371     147.240E-03     155.910E-03
            2082            2371     147.240E-03     155.910E-03
            2077            2372     127.242E-03     136.217E-03
            2078            2372     127.242E-03     136.217E-03
            2082            2372     127.242E-03     136.217E-03
            2083            2372     127.242E-03     136.217E-03
            2084            2373     104.491E-03     108.029E-03
            2079            2373     104.491E-03     108.029E-03
            2078            2373     104.491E-03     108.029E-03
            2083            2373     104.491E-03     108.029E-03
            2079            2374     74.8593E-03     77.1198E-03
            2080            2374     74.8593E-03     77.1198E-03
            2084            2374     74.8593E-03     77.1198E-03
            2085            2374     74.8593E-03     77.1198E-03
            2081            2375     170.355E-03     168.034E-03
            2082            2375     170.355E-03     168.034E-03
            2086            2375     170.355E-03     168.034E-03
            2087            2375     170.355E-03     168.034E-03
            2088            2376     149.394E-03     145.365E-03
            2087            2376     149.394E-03     145.365E-03
            2082            2376     149.394E-03     145.365E-03
            2083            2376     149.394E-03     145.365E-03
            2089            2377     119.650E-03     112.914E-03
            2084            2377     119.650E-03     112.914E-03
            2083            2377     119.650E-03     112.914E-03
            2088            2377     119.650E-03     112.914E-03
            2084            2378     81.3584E-03     79.4856E-03
            2085            2378     81.3584E-03     79.4856E-03
            2089            2378     81.3584E-03     79.4856E-03
            2090            2378     81.3584E-03     79.4856E-03
            2091            2379     185.065E-03     182.433E-03
            2092            2379     185.065E-03     182.433E-03
            2086            2379     185.065E-03     182.433E-03
            2087            2379     185.065E-03     182.433E-03
            2093            2380     157.240E-03     154.617E-03
            2087            2380     157.240E-03     154.617E-03
            2088            2380     157.240E-03     154.617E-03
            2092            2380     157.240E-03     154.617E-03
            2094            2381     121.792E-03     116.524E-03
            2089            2381     121.792E-03     116.524E-03
            2088            2381     121.792E-03     116.524E-03
            2093            2381     121.792E-03     116.524E-03
            2090            2382     80.9156E-03     77.6796E-03
            2089            2382     80.9156E-03     77.6796E-03
            2095            2382     80.9156E-03     77.6796E-03
            2094            2382     80.9156E-03     77.6796E-03
            2096            2383     164.364E-03     190.834E-03
            2097            2383     164.364E-03     190.834E-03
            2092            2383     164.364E-03     190.834E-03
            2091            2383     164.364E-03     190.834E-03
            2093            2384     136.816E-03     166.651E-03
            2097            2384     136.816E-03     166.651E-03
            2098            2384     136.816E-03     166.651E-03
            2092            2384     136.816E-03     166.651E-03
            2098            2385     105.289E-03     122.063E-03
            2094            2385     105.289E-03     122.063E-03
            2093            2385     105.289E-03     122.063E-03
            2099            2385     105.289E-03     122.063E-03
            2100            2386     72.7880E-03     78.3521E-03
            2095            2386     72.7880E-03     78.3521E-03
            2094            2386     72.7880E-03     78.3521E-03
            2099            2386     72.7880E-03     78.3521E-03
            2102            2387     173.362E-03     172.112E-03
            2096            2387     173.362E-03     172.112E-03
            2101            2387     173.362E-03     172.112E-03
            2097            2387     173.362E-03     172.112E-03
            2097            2388     154.460E-03     154.439E-03
            2103            2388     154.460E-03     154.439E-03
            2098            2388     154.460E-03     154.439E-03
            2102            2388     154.460E-03     154.439E-03
            2098            2389     118.868E-03     116.601E-03
            2099            2389     118.868E-03     116.601E-03
            2104            2389     118.868E-03     116.601E-03
            2103            2389     118.868E-03     116.601E-03
            2099            2390     80.1152E-03     78.5713E-03
            2105            2390     80.1152E-03     78.5713E-03
            2104            2390     80.1152E-03     78.5713E-03
            2100            2390     80.1152E-03     78.5713E-03
            2102            2391     181.670E-03     175.136E-03
            2106            2391     181.670E-03     175.136E-03
            2107            2391     181.670E-03     175.136E-03
            2101            2391     181.670E-03     175.136E-03
            2107            2392     162.004E-03     155.406E-03
            2103            2392     162.004E-03     155.406E-03
            2102            2392     162.004E-03     155.406E-03
            2108            2392     162.004E-03     155.406E-03
            2104            2393     128.669E-03     122.148E-03
            2103            2393     128.669E-03     122.148E-03
            2109            2393     128.669E-03     122.148E-03
            2108            2393     128.669E-03     122.148E-03
            2105            2394     86.6260E-03     83.2494E-03
            2109            2394     86.6260E-03     83.2494E-03
            2110            2394     86.6260E-03     83.2494E-03
            2104            2394     86.6260E-03     83.2494E-03
            2111            2395     176.060E-03     194.211E-03
            2106            2395     176.060E-03     194.211E-03
            2107            2395     176.060E-03     194.211E-03
            2112            2395     176.060E-03     194.211E-03
            2113            2396     151.785E-03     171.012E-03
            2108            2396     151.785E-03     171.012E-03
            2107            2396     151.785E-03     171.012E-03
            2112            2396     151.785E-03     171.012E-03
            2108            2397     124.139E-03     134.526E-03
            2113            2397     124.139E-03     134.526E-03
            2109            2397     124.139E-03     134.526E-03
            2114            2397     124.139E-03     134.526E-03
            2115            2398     85.5715E-03     91.0502E-03
            2110            2398     85.5715E-03     91.0502E-03
            2114            2398     85.5715E-03     91.0502E-03
            2109            2398     85.5715E-03     91.0502E-03
            2117            2399     208.119E-03     200.797E-03
            2112            2399     208.119E-03     200.797E-03
            2111            2399     208.119E-03     200.797E-03
            2116            2399     208.119E-03     200.797E-03
            2112            2400     182.484E-03     173.223E-03
            2117            2400     182.484E-03     173.223E-03
            2113            2400     182.484E-03     173.223E-03
            2118            2400     182.484E-03     173.223E-03
            2113            2401     144.201E-03     134.352E-03
            2119            2401     144.201E-03     134.352E-03
            2118            2401     144.201E-03     134.352E-03
            2114            2401     144.201E-03     134.352E-03
            2115            2402     94.1358E-03     91.6348E-03
            2114            2402     94.1358E-03     91.6348E-03
            2120            2402     94.1358E-03     91.6348E-03
            2119            2402     94.1358E-03     91.6348E-03
            2116            2403     221.746E-03     220.087E-03
            2117            2403     221.746E-03     220.087E-03
            2122            2403     221.746E-03     220.087E-03
            2121            2403     221.746E-03     220.087E-03
            2118            2404     188.590E-03     186.299E-03
            2117            2404     188.590E-03     186.299E-03
            2123            2404     188.590E-03     186.299E-03
            2122            2404     188.590E-03     186.299E-03
            2123            2405     145.035E-03     139.056E-03
            2124            2405     145.035E-03     139.056E-03
            2119            2405     145.035E-03     139.056E-03
            2118            2405     145.035E-03     139.056E-03
            2120            2406     92.9525E-03     89.4753E-03
            2124            2406     92.9525E-03     89.4753E-03
            2125            2406     92.9525E-03     89.4753E-03
            2119            2406     92.9525E-03     89.4753E-03
            2127            2407     201.272E-03     222.558E-03
            2122            2407     201.272E-03     222.558E-03
            2126            2407     201.272E-03     222.558E-03
            2121            2407     201.272E-03     222.558E-03
            2127            2408     168.467E-03     190.528E-03
            2122            2408     168.467E-03     190.528E-03
            2128            2408     168.467E-03     190.528E-03
            2123            2408     168.467E-03     190.528E-03
            2123            2409     128.753E-03     141.357E-03
            2124            2409     128.753E-03     141.357E-03
            2128            2409     128.753E-03     141.357E-03
            2129            2409     128.753E-03     141.357E-03
            2129            2410     81.3991E-03     85.8853E-03
            2124            2410     81.3991E-03     85.8853E-03
            2130            2410     81.3991E-03     85.8853E-03
            2125            2410     81.3991E-03     85.8853E-03
            2252            2487     207.742E-03     232.666E-03
            2256            2487     207.742E-03     232.666E-03
            2257            2487     207.742E-03     232.666E-03
            2251            2487     207.742E-03     232.666E-03
            2258            2488     176.242E-03     196.606E-03
            2257            2488     176.242E-03     196.606E-03
            2253            2488     176.242E-03     196.606E-03
            2252            2488     176.242E-03     196.606E-03
            2258            2489     147.065E-03     155.967E-03
            2253            2489     147.065E-03     155.967E-03
            2259            2489     147.065E-03     155.967E-03
            2254            2489     147.065E-03     155.967E-03
            2260            2490     116.466E-03     117.739E-03
            2255            2490     116.466E-03     117.739E-03
            2254            2490     116.466E-03     117.739E-03
            2259            2490     116.466E-03     117.739E-03
            2262            2491     216.962E-03     219.556E-03
            2256            2491     216.962E-03     219.556E-03
            2261            2491     216.962E-03     219.556E-03
            2257            2491     216.962E-03     219.556E-03
            2257            2492     188.991E-03     188.485E-03
            2258            2492     188.991E-03     188.485E-03
            2262            2492     188.991E-03     188.485E-03
            2263            2492     188.991E-03     188.485E-03
            2258            2493     164.377E-03     159.991E-03
            2263            2493     164.377E-03     159.991E-03
            2264            2493     164.377E-03     159.991E-03
            2259            2493     164.377E-03     159.991E-03
            2259            2494     138.515E-03     135.139E-03
            2260            2494     138.515E-03     135.139E-03
            2265            2494     138.515E-03     135.139E-03
            2264            2494     138.515E-03     135.139E-03
            2261            2495     198.151E-03     184.528E-03
            2262            2495     198.151E-03     184.528E-03
            2267            2495     198.151E-03     184.528E-03
            2266            2495     198.151E-03     184.528E-03
            2262            2496     186.042E-03     173.411E-03
            2267            2496     186.042E-03     173.411E-03
            2268            2496     186.042E-03     173.411E-03
            2263            2496     186.042E-03     173.411E-03
            2268            2497     163.015E-03     153.893E-03
            2263            2497     163.015E-03     153.893E-03
            2264            2497     163.015E-03     153.893E-03
            2269            2497     163.015E-03     153.893E-03
            2265            2498     137.990E-03     135.741E-03
            2270            2498     137.990E-03     135.741E-03
            2269            2498     137.990E-03     135.741E-03
            2264            2498     137.990E-03     135.741E-03
            2266            2499     157.697E-03     164.020E-03
            2271            2499     157.697E-03     164.020E-03
            2267            2499     157.697E-03     164.020E-03
            2272            2499     157.697E-03     164.020E-03
            2267            2500     155.150E-03     164.496E-03
            2272            2500     155.150E-03     164.496E-03
            2268            2500     155.150E-03     164.496E-03
            2273            2500     155.150E-03     164.496E-03
            2274            2501     141.812E-03     146.556E-03
            2269            2501     141.812E-03     146.556E-03
            2268            2501     141.812E-03     146.556E-03
            2273            2501     141.812E-03     146.556E-03
            2269            2502     130.508E-03     132.742E-03
            2275            2502     130.508E-03     132.742E-03
            2274            2502     130.508E-03     132.742E-03
            2270            2502     130.508E-03     132.742E-03
            2277            2503     124.858E-03     124.413E-03
            2276            2503     124.858E-03     124.413E-03
            2282            2503     124.858E-03     124.413E-03
            2281            2503     124.858E-03     124.413E-03
            2277            2504     129.741E-03     130.635E-03
            2282            2504     129.741E-03     130.635E-03
            2278            2504     129.741E-03     130.635E-03
            2283            2504     129.741E-03     130.635E-03
            2279            2505     137.067E-03     139.077E-03
            2283            2505     137.067E-03     139.077E-03
            2284            2505     137.067E-03     139.077E-03
            2278            2505     137.067E-03     139.077E-03
            2284            2506     142.831E-03     145.311E-03
            2279            2506     142.831E-03     145.311E-03
            2285            2506     142.831E-03     145.311E-03
            2280            2506     142.831E-03     145.311E-03
            2287            2507     130.556E-03     129.507E-03
            2282            2507     130.556E-03     129.507E-03
            2286            2507     130.556E-03     129.507E-03
            2281            2507     130.556E-03     129.507E-03
            2288            2508     130.860E-03     133.730E-03
            2283            2508     130.860E-03     133.730E-03
            2287            2508     130.860E-03     133.730E-03
            2282            2508     130.860E-03     133.730E-03
            2289            2509     133.313E-03     143.045E-03
            2284            2509     133.313E-03     143.045E-03
            2283            2509     133.313E-03     143.045E-03
            2288            2509     133.313E-03     143.045E-03
            2285            2510     141.631E-03     151.959E-03
            2290            2510     141.631E-03     151.959E-03
            2289            2510     141.631E-03     151.959E-03
            2284            2510     141.631E-03     151.959E-03
            2286            2511     130.184E-03     126.728E-03
            2291            2511     130.184E-03     126.728E-03
            2292            2511     130.184E-03     126.728E-03
            2287            2511     130.184E-03     126.728E-03
            2292            2512     133.117E-03     128.481E-03
            2287            2512     133.117E-03     128.481E-03
            2288            2512     133.117E-03     128.481E-03
            2293            2512     133.117E-03     128.481E-03
            2288            2513     137.737E-03     135.900E-03
            2293            2513     137.737E-03     135.900E-03
            2289            2513     137.737E-03     135.900E-03
            2294            2513     137.737E-03     135.900E-03
            2290            2514     154.288E-03     153.904E-03
            2289            2514     154.288E-03     153.904E-03
            2295            2514     154.288E-03     153.904E-03
            2294            2514     154.288E-03     153.904E-03
            2291            2515     128.025E-03     126.312E-03
            2297            2515     128.025E-03     126.312E-03
            2296            2515     128.025E-03     126.312E-03
            2292            2515     128.025E-03     126.312E-03
            2298            2516     126.142E-03     120.231E-03
            2293            2516     126.142E-03     120.231E-03
            2292            2516     126.142E-03     120.231E-03
            2297            2516     126.142E-03     120.231E-03
            2298            2517     123.665E-03     118.022E-03
            2293            2517     123.665E-03     118.022E-03
            2299            2517     123.665E-03     118.022E-03
            2294            2517     123.665E-03     118.022E-03
            2299            2518     127.348E-03     122.706E-03
            2294            2518     127.348E-03     122.706E-03
            2295            2518     127.348E-03     122.706E-03
            2300            2518     127.348E-03     122.706E-03
            2302            2519     121.720E-03     123.290E-03
            2297            2519     121.720E-03     123.290E-03
            2296            2519     121.720E-03     123.290E-03
            2301            2519     121.720E-03     123.290E-03
            2297            2520     109.863E-03     113.853E-03
            2302            2520     109.863E-03     113.853E-03
            2303            2520     109.863E-03     113.853E-03
            2298            2520     109.863E-03     113.853E-03
            2303            2521     93.7124E-03     102.370E-03
            2304            2521     93.7124E-03     102.370E-03
            2298            2521     93.7124E-03     102.370E-03
            2299            2521     93.7124E-03     102.370E-03
            2305            2522     86.8982E-03     96.6387E-03
            2300            2522     86.8982E-03     96.6387E-03
            2299            2522     86.8982E-03     96.6387E-03
            2304            2522     86.8982E-03     96.6387E-03
            2306            2523     120.469E-03     119.897E-03
            2307            2523     120.469E-03     119.897E-03
            2301            2523     120.469E-03     119.897E-03
            2302            2523     120.469E-03     119.897E-03
            2303            2524     105.227E-03     104.176E-03
            2302            2524     105.227E-03     104.176E-03
            2307            2524     105.227E-03     104.176E-03
            2308            2524     105.227E-03     104.176E-03
            2303            2525     83.8203E-03     80.0294E-03
            2309            2525     83.8203E-03     80.0294E-03
            2308            2525     83.8203E-03     80.0294E-03
            2304            2525     83.8203E-03     80.0294E-03
            2310            2526     67.6327E-03     62.2664E-03
            2305            2526     67.6327E-03     62.2664E-03
            2309            2526     67.6327E-03     62.2664E-03
            2304            2526     67.6327E-03     62.2664E-03
            2311            2527     118.607E-03     118.289E-03
            2306            2527     118.607E-03     118.289E-03
            2312            2527     118.607E-03     118.289E-03
            2307            2527     118.607E-03     118.289E-03
            2312            2528     98.4149E-03     100.606E-03
            2308            2528     98.4149E-03     100.606E-03
            2313            2528     98.4149E-03     100.606E-03
            2307            2528     98.4149E-03     100.606E-03
            2308            2529     71.1961E-03     73.3734E-03
            2313            2529     71.1961E-03     73.3734E-03
            2314            2529     71.1961E-03     73.3734E-03
            2309            2529     71.1961E-03     73.3734E-03
            2309            2530     41.3705E-03     43.6594E-03
            2315            2530     41.3705E-03     43.6594E-03
            2310            2530     41.3705E-03     43.6594E-03
            2314            2530     41.3705E-03     43.6594E-03
            2311            2531     117.827E-03     116.520E-03
            2316            2531     117.827E-03     116.520E-03
            2317            2531     117.827E-03     116.520E-03
            2312            2531     117.827E-03     116.520E-03
            2318            2532     94.7878E-03     96.6714E-03
            2312            2532     94.7878E-03     96.6714E-03
            2313            2532     94.7878E-03     96.6714E-03
            2317            2532     94.7878E-03     96.6714E-03
            2319            2533     66.5514E-03     69.5449E-03
            2314            2533     66.5514E-03     69.5449E-03
            2318            2533     66.5514E-03     69.5449E-03
            2313            2533     66.5514E-03     69.5449E-03
            2315            2534     33.8390E-03     40.1729E-03
            2314            2534     33.8390E-03     40.1729E-03
            2320            2534     33.8390E-03     40.1729E-03
            2319            2534     33.8390E-03     40.1729E-03
            2322            2535     94.3715E-03     93.8044E-03
            2317            2535     94.3715E-03     93.8044E-03
            2321            2535     94.3715E-03     93.8044E-03
            2316            2535     94.3715E-03     93.8044E-03
            2317            2536     78.0594E-03     78.4347E-03
            2323            2536     78.0594E-03     78.4347E-03
            2318            2536     78.0594E-03     78.4347E-03
            2322            2536     78.0594E-03     78.4347E-03
            2323            2537     56.8175E-03     57.7956E-03
            2324            2537     56.8175E-03     57.7956E-03
            2319            2537     56.8175E-03     57.7956E-03
            2318            2537     56.8175E-03     57.7956E-03
            2324            2538     33.8910E-03     37.4549E-03
            2319            2538     33.8910E-03     37.4549E-03
            2325            2538     33.8910E-03     37.4549E-03
            2320            2538     33.8910E-03     37.4549E-03
            2372            2565     348.832E-06     380.554E-06
            2389            2565     348.832E-06     380.554E-06
            2371            2565     348.832E-06     380.554E-06
            2388            2565     348.832E-06     380.554E-06
            2389            2566     287.553E-06     323.013E-06
            2372            2566     287.553E-06     323.013E-06
            2390            2566     287.553E-06     323.013E-06
            2373            2566     287.553E-06     323.013E-06
            2373            2567     274.605E-06     310.646E-06
            2390            2567     274.605E-06     310.646E-06
            2374            2567     274.605E-06     310.646E-06
            2391            2567     274.605E-06     310.646E-06
            2375            2568     273.944E-06     307.256E-06
            2392            2568     273.944E-06     307.256E-06
            2374            2568     273.944E-06     307.256E-06
            2391            2568     273.944E-06     307.256E-06
            2376            2569     266.800E-06     300.030E-06
            2392            2569     266.800E-06     300.030E-06
            2393            2569     266.800E-06     300.030E-06
            2375            2569     266.800E-06     300.030E-06
            2377            2570     260.952E-06     293.790E-06
            2376            2570     260.952E-06     293.790E-06
            2394            2570     260.952E-06     293.790E-06
            2393            2570     260.952E-06     293.790E-06
            2394            2571     255.283E-06     287.373E-06
            2395            2571     255.283E-06     287.373E-06
            2377            2571     255.283E-06     287.373E-06
            2378            2571     255.283E-06     287.373E-06
            2379            2572     250.555E-06     281.668E-06
            2396            2572     250.555E-06     281.668E-06
            2378            2572     250.555E-06     281.668E-06
            2395            2572     250.555E-06     281.668E-06
            2380            2573     246.851E-06     276.305E-06
            2397            2573     246.851E-06     276.305E-06
            2396            2573     246.851E-06     276.305E-06
            2379            2573     246.851E-06     276.305E-06
            2397            2574     243.836E-06     271.520E-06
            2381            2574     243.836E-06     271.520E-06
            2380            2574     243.836E-06     271.520E-06
            2398            2574     243.836E-06     271.520E-06
            2382            2575     241.836E-06     267.135E-06
            2381            2575     241.836E-06     267.135E-06
            2398            2575     241.836E-06     267.135E-06
            2399            2575     241.836E-06     267.135E-06
            2383            2576     240.355E-06     263.124E-06
            2382            2576     240.355E-06     263.124E-06
            2400            2576     240.355E-06     263.124E-06
            2399            2576     240.355E-06     263.124E-06
            2400            2577     240.123E-06     259.829E-06
            2401            2577     240.123E-06     259.829E-06
            2384            2577     240.123E-06     259.829E-06
            2383            2577     240.123E-06     259.829E-06
            2401            2578     240.696E-06     255.997E-06
            2402            2578     240.696E-06     255.997E-06
            2385            2578     240.696E-06     255.997E-06
            2384            2578     240.696E-06     255.997E-06
            2385            2579     240.082E-06     253.715E-06
            2386            2579     240.082E-06     253.715E-06
            2403            2579     240.082E-06     253.715E-06
            2402            2579     240.082E-06     253.715E-06
            2404            2580     238.929E-06     257.025E-06
            2387            2580     238.929E-06     257.025E-06
            2403            2580     238.929E-06     257.025E-06
            2386            2580     238.929E-06     257.025E-06
            2388            2581     276.804E-06     284.387E-06
            2389            2581     276.804E-06     284.387E-06
            2406            2581     276.804E-06     284.387E-06
            2405            2581     276.804E-06     284.387E-06
            2406            2582     294.005E-06     314.090E-06
            2407            2582     294.005E-06     314.090E-06
            2389            2582     294.005E-06     314.090E-06
            2390            2582     294.005E-06     314.090E-06
            2391            2583     299.037E-06     315.404E-06
            2390            2583     299.037E-06     315.404E-06
            2407            2583     299.037E-06     315.404E-06
            2408            2583     299.037E-06     315.404E-06
            2409            2584     289.612E-06     306.296E-06
            2391            2584     289.612E-06     306.296E-06
            2408            2584     289.612E-06     306.296E-06
            2392            2584     289.612E-06     306.296E-06
            2409            2585     280.577E-06     297.111E-06
            2392            2585     280.577E-06     297.111E-06
            2410            2585     280.577E-06     297.111E-06
            2393            2585     280.577E-06     297.111E-06
            2411            2586     272.875E-06     289.343E-06
            2410            2586     272.875E-06     289.343E-06
            2393            2586     272.875E-06     289.343E-06
            2394            2586     272.875E-06     289.343E-06
            2394            2587     266.949E-06     283.166E-06
            2411            2587     266.949E-06     283.166E-06
            2412            2587     266.949E-06     283.166E-06
            2395            2587     266.949E-06     283.166E-06
            2412            2588     262.004E-06     277.806E-06
            2395            2588     262.004E-06     277.806E-06
            2413            2588     262.004E-06     277.806E-06
            2396            2588     262.004E-06     277.806E-06
            2413            2589     257.820E-06     273.156E-06
            2396            2589     257.820E-06     273.156E-06
            2397            2589     257.820E-06     273.156E-06
            2414            2589     257.820E-06     273.156E-06
            2414            2590     254.321E-06     268.958E-06
            2397            2590     254.321E-06     268.958E-06
            2398            2590     254.321E-06     268.958E-06
            2415            2590     254.321E-06     268.958E-06
            2415            2591     251.339E-06     265.233E-06
            2416            2591     251.339E-06     265.233E-06
            2399            2591     251.339E-06     265.233E-06
            2398            2591     251.339E-06     265.233E-06
            2417            2592     249.229E-06     262.052E-06
            2399            2592     249.229E-06     262.052E-06
            2416            2592     249.229E-06     262.052E-06
            2400            2592     249.229E-06     262.052E-06
            2401            2593     247.574E-06     259.461E-06
            2417            2593     247.574E-06     259.461E-06
            2418            2593     247.574E-06     259.461E-06
            2400            2593     247.574E-06     259.461E-06
            2418            2594     246.523E-06     259.196E-06
            2401            2594     246.523E-06     259.196E-06
            2402            2594     246.523E-06     259.196E-06
            2419            2594     246.523E-06     259.196E-06
            2419            2595     251.389E-06     256.438E-06
            2420            2595     251.389E-06     256.438E-06
            2403            2595     251.389E-06     256.438E-06
            2402            2595     251.389E-06     256.438E-06
            2404            2596     263.872E-06     242.220E-06
            2421            2596     263.872E-06     242.220E-06
            2420            2596     263.872E-06     242.220E-06
            2403            2596     263.872E-06     242.220E-06
            2423            2597     179.691E-06     194.571E-06
            2422            2597     179.691E-06     194.571E-06
            2406            2597     179.691E-06     194.571E-06
            2405            2597     179.691E-06     194.571E-06
            2407            2598     279.387E-06     283.066E-06
            2406            2598     279.387E-06     283.066E-06
            2424            2598     279.387E-06     283.066E-06
            2423            2598     279.387E-06     283.066E-06
            2424            2599     309.557E-06     305.269E-06
            2425            2599     309.557E-06     305.269E-06
            2407            2599     309.557E-06     305.269E-06
            2408            2599     309.557E-06     305.269E-06
            2425            2600     300.248E-06     297.835E-06
            2426            2600     300.248E-06     297.835E-06
            2409            2600     300.248E-06     297.835E-06
            2408            2600     300.248E-06     297.835E-06
            2410            2601     292.738E-06     290.752E-06
            2426            2601     292.738E-06     290.752E-06
            2409            2601     292.738E-06     290.752E-06
            2427            2601     292.738E-06     290.752E-06
            2411            2602     285.686E-06     283.858E-06
            2410            2602     285.686E-06     283.858E-06
            2428            2602     285.686E-06     283.858E-06
            2427            2602     285.686E-06     283.858E-06
            2412            2603     280.249E-06     278.740E-06
            2429            2603     280.249E-06     278.740E-06
            2428            2603     280.249E-06     278.740E-06
            2411            2603     280.249E-06     278.740E-06
            2429            2604     275.578E-06     274.456E-06
            2413            2604     275.578E-06     274.456E-06
            2412            2604     275.578E-06     274.456E-06
            2430            2604     275.578E-06     274.456E-06
            2414            2605     271.355E-06     270.721E-06
            2413            2605     271.355E-06     270.721E-06
            2430            2605     271.355E-06     270.721E-06
            2431            2605     271.355E-06     270.721E-06
            2432            2606     267.586E-06     267.497E-06
            2431            2606     267.586E-06     267.497E-06
            2415            2606     267.586E-06     267.497E-06
            2414            2606     267.586E-06     267.497E-06
            2416            2607     264.150E-06     264.690E-06
            2415            2607     264.150E-06     264.690E-06
            2433            2607     264.150E-06     264.690E-06
            2432            2607     264.150E-06     264.690E-06
            2416            2608     261.286E-06     262.503E-06
            2433            2608     261.286E-06     262.503E-06
            2417            2608     261.286E-06     262.503E-06
            2434            2608     261.286E-06     262.503E-06
            2417            2609     258.813E-06     260.951E-06
            2435            2609     258.813E-06     260.951E-06
            2418            2609     258.813E-06     260.951E-06
            2434            2609     258.813E-06     260.951E-06
            2418            2610     256.605E-06     261.672E-06
            2436            2610     256.605E-06     261.672E-06
            2435            2610     256.605E-06     261.672E-06
            2419            2610     256.605E-06     261.672E-06
            2420            2611     259.541E-06     260.942E-06
            2436            2611     259.541E-06     260.942E-06
            2419            2611     259.541E-06     260.942E-06
            2437            2611     259.541E-06     260.942E-06
            2438            2612     270.732E-06     249.733E-06
            2421            2612     270.732E-06     249.733E-06
            2420            2612     270.732E-06     249.733E-06
            2437            2612     270.732E-06     249.733E-06
            2422            2613     146.488E-06     158.277E-06
            2439            2613     146.488E-06     158.277E-06
            2440            2613     146.488E-06     158.277E-06
            2423            2613     146.488E-06     158.277E-06
            2423            2614     260.131E-06     235.748E-06
            2440            2614     260.131E-06     235.748E-06
            2441            2614     260.131E-06     235.748E-06
            2424            2614     260.131E-06     235.748E-06
            2424            2615     295.877E-06     272.151E-06
            2442            2615     295.877E-06     272.151E-06
            2425            2615     295.877E-06     272.151E-06
            2441            2615     295.877E-06     272.151E-06
            2443            2616     305.444E-06     281.816E-06
            2426            2616     305.444E-06     281.816E-06
            2425            2616     305.444E-06     281.816E-06
            2442            2616     305.444E-06     281.816E-06
            2426            2617     302.968E-06     280.607E-06
            2443            2617     302.968E-06     280.607E-06
            2427            2617     302.968E-06     280.607E-06
            2444            2617     302.968E-06     280.607E-06
            2445            2618     299.548E-06     277.880E-06
            2428            2618     299.548E-06     277.880E-06
            2427            2618     299.548E-06     277.880E-06
            2444            2618     299.548E-06     277.880E-06
            2429            2619     295.370E-06     274.757E-06
            2445            2619     295.370E-06     274.757E-06
            2428            2619     295.370E-06     274.757E-06
            2446            2619     295.370E-06     274.757E-06
            2447            2620     291.270E-06     271.885E-06
            2429            2620     291.270E-06     271.885E-06
            2430            2620     291.270E-06     271.885E-06
            2446            2620     291.270E-06     271.885E-06
            2431            2621     287.347E-06     269.320E-06
            2430            2621     287.347E-06     269.320E-06
            2447            2621     287.347E-06     269.320E-06
            2448            2621     287.347E-06     269.320E-06
            2431            2622     283.427E-06     267.217E-06
            2432            2622     283.427E-06     267.217E-06
            2449            2622     283.427E-06     267.217E-06
            2448            2622     283.427E-06     267.217E-06
            2450            2623     279.892E-06     265.612E-06
            2433            2623     279.892E-06     265.612E-06
            2432            2623     279.892E-06     265.612E-06
            2449            2623     279.892E-06     265.612E-06
            2433            2624     276.302E-06     264.442E-06
            2450            2624     276.302E-06     264.442E-06
            2451            2624     276.302E-06     264.442E-06
            2434            2624     276.302E-06     264.442E-06
            2451            2625     273.396E-06     264.217E-06
            2452            2625     273.396E-06     264.217E-06
            2434            2625     273.396E-06     264.217E-06
            2435            2625     273.396E-06     264.217E-06
            2435            2626     270.640E-06     263.661E-06
            2436            2626     270.640E-06     263.661E-06
            2453            2626     270.640E-06     263.661E-06
            2452            2626     270.640E-06     263.661E-06
            2453            2627     265.751E-06     266.012E-06
            2454            2627     265.751E-06     266.012E-06
            2436            2627     265.751E-06     266.012E-06
            2437            2627     265.751E-06     266.012E-06
            2437            2628     259.911E-06     275.779E-06
            2455            2628     259.911E-06     275.779E-06
            2454            2628     259.911E-06     275.779E-06
            2438            2628     259.911E-06     275.779E-06
            2457            2629     140.608E-03     143.420E-03
            2473            2629     140.608E-03     143.420E-03
            2474            2629     140.608E-03     143.420E-03
            2456            2629     140.608E-03     143.420E-03
            2474            2630     133.384E-03     135.813E-03
            2475            2630     133.384E-03     135.813E-03
            2458            2630     133.384E-03     135.813E-03
            2457            2630     133.384E-03     135.813E-03
            2476            2631     123.796E-03     126.315E-03
            2475            2631     123.796E-03     126.315E-03
            2458            2631     123.796E-03     126.315E-03
            2459            2631     123.796E-03     126.315E-03
            2459            2632     114.967E-03     117.686E-03
            2460            2632     114.967E-03     117.686E-03
            2477            2632     114.967E-03     117.686E-03
            2476            2632     114.967E-03     117.686E-03
            2477            2633     106.156E-03     108.651E-03
            2461            2633     106.156E-03     108.651E-03
            2460            2633     106.156E-03     108.651E-03
            2478            2633     106.156E-03     108.651E-03
            2479            2634     97.2574E-03     99.9693E-03
            2478            2634     97.2574E-03     99.9693E-03
            2461            2634     97.2574E-03     99.9693E-03
            2462            2634     97.2574E-03     99.9693E-03
            2480            2635     88.6098E-03     91.1695E-03
            2462            2635     88.6098E-03     91.1695E-03
            2479            2635     88.6098E-03     91.1695E-03
            2463            2635     88.6098E-03     91.1695E-03
            2464            2636     79.9476E-03     82.6292E-03
            2463            2636     79.9476E-03     82.6292E-03
            2481            2636     79.9476E-03     82.6292E-03
            2480            2636     79.9476E-03     82.6292E-03
            2465            2637     71.5308E-03     74.1450E-03
            2464            2637     71.5308E-03     74.1450E-03
            2481            2637     71.5308E-03     74.1450E-03
            2482            2637     71.5308E-03     74.1450E-03
            2482            2638     63.2745E-03     65.9394E-03
            2466            2638     63.2745E-03     65.9394E-03
            2465            2638     63.2745E-03     65.9394E-03
            2483            2638     63.2745E-03     65.9394E-03
            2484            2639     55.3823E-03     58.0062E-03
            2466            2639     55.3823E-03     58.0062E-03
            2483            2639     55.3823E-03     58.0062E-03
            2467            2639     55.3823E-03     58.0062E-03
            2467            2640     47.9701E-03     50.5552E-03
            2484            2640     47.9701E-03     50.5552E-03
            2485            2640     47.9701E-03     50.5552E-03
            2468            2640     47.9701E-03     50.5552E-03
            2485            2641     41.3977E-03     43.8194E-03
            2468            2641     41.3977E-03     43.8194E-03
            2486            2641     41.3977E-03     43.8194E-03
            2469            2641     41.3977E-03     43.8194E-03
            2487            2642     36.0441E-03     38.0313E-03
            2469            2642     36.0441E-03     38.0313E-03
            2486            2642     36.0441E-03     38.0313E-03
            2470            2642     36.0441E-03     38.0313E-03
            2487            2643     32.8130E-03     34.2066E-03
            2488            2643     32.8130E-03     34.2066E-03
            2470            2643     32.8130E-03     34.2066E-03
            2471            2643     32.8130E-03     34.2066E-03
            2488            2644     30.9642E-03     30.6733E-03
            2472            2644     30.9642E-03     30.6733E-03
            2489            2644     30.9642E-03     30.6733E-03
            2471            2644     30.9642E-03     30.6733E-03
            2474            2645     131.117E-03     130.566E-03
            2491            2645     131.117E-03     130.566E-03
            2490            2645     131.117E-03     130.566E-03
            2473            2645     131.117E-03     130.566E-03
            2491            2646     114.638E-03     111.182E-03
            2475            2646     114.638E-03     111.182E-03
            2474            2646     114.638E-03     111.182E-03
            2492            2646     114.638E-03     111.182E-03
            2476            2647     101.849E-03     97.8134E-03
            2493            2647     101.849E-03     97.8134E-03
            2492            2647     101.849E-03     97.8134E-03
            2475            2647     101.849E-03     97.8134E-03
            2476            2648     93.6304E-03     89.6611E-03
            2494            2648     93.6304E-03     89.6611E-03
            2493            2648     93.6304E-03     89.6611E-03
            2477            2648     93.6304E-03     89.6611E-03
            2494            2649     86.4755E-03     82.3410E-03
            2477            2649     86.4755E-03     82.3410E-03
            2478            2649     86.4755E-03     82.3410E-03
            2495            2649     86.4755E-03     82.3410E-03
            2496            2650     79.8610E-03     75.8902E-03
            2478            2650     79.8610E-03     75.8902E-03
            2479            2650     79.8610E-03     75.8902E-03
            2495            2650     79.8610E-03     75.8902E-03
            2479            2651     73.5607E-03     69.4861E-03
            2480            2651     73.5607E-03     69.4861E-03
            2497            2651     73.5607E-03     69.4861E-03
            2496            2651     73.5607E-03     69.4861E-03
            2480            2652     67.2927E-03     63.3201E-03
            2498            2652     67.2927E-03     63.3201E-03
            2497            2652     67.2927E-03     63.3201E-03
            2481            2652     67.2927E-03     63.3201E-03
            2481            2653     61.2309E-03     57.2230E-03
            2499            2653     61.2309E-03     57.2230E-03
            2482            2653     61.2309E-03     57.2230E-03
            2498            2653     61.2309E-03     57.2230E-03
            2482            2654     55.2909E-03     51.3723E-03
            2499            2654     55.2909E-03     51.3723E-03
            2500            2654     55.2909E-03     51.3723E-03
            2483            2654     55.2909E-03     51.3723E-03
            2484            2655     49.6680E-03     45.8005E-03
            2501            2655     49.6680E-03     45.8005E-03
            2483            2655     49.6680E-03     45.8005E-03
            2500            2655     49.6680E-03     45.8005E-03
            2484            2656     44.3389E-03     40.6344E-03
            2501            2656     44.3389E-03     40.6344E-03
            2502            2656     44.3389E-03     40.6344E-03
            2485            2656     44.3389E-03     40.6344E-03
            2486            2657     39.5458E-03     36.1492E-03
            2503            2657     39.5458E-03     36.1492E-03
            2485            2657     39.5458E-03     36.1492E-03
            2502            2657     39.5458E-03     36.1492E-03
            2504            2658     35.2748E-03     32.3726E-03
            2486            2658     35.2748E-03     32.3726E-03
            2503            2658     35.2748E-03     32.3726E-03
            2487            2658     35.2748E-03     32.3726E-03
            2488            2659     32.0055E-03     30.2279E-03
            2505            2659     32.0055E-03     30.2279E-03
            2487            2659     32.0055E-03     30.2279E-03
            2504            2659     32.0055E-03     30.2279E-03
            2488            2660     29.0872E-03     28.2885E-03
            2489            2660     29.0872E-03     28.2885E-03
            2505            2660     29.0872E-03     28.2885E-03
            2506            2660     29.0872E-03     28.2885E-03
            2490            2661     118.784E-03     125.787E-03
            2508            2661     118.784E-03     125.787E-03
            2491            2661     118.784E-03     125.787E-03
            2507            2661     118.784E-03     125.787E-03
            2509            2662     85.8123E-03     94.1185E-03
            2491            2662     85.8123E-03     94.1185E-03
            2492            2662     85.8123E-03     94.1185E-03
            2508            2662     85.8123E-03     94.1185E-03
            2509            2663     70.7646E-03     78.9782E-03
            2493            2663     70.7646E-03     78.9782E-03
            2510            2663     70.7646E-03     78.9782E-03
            2492            2663     70.7646E-03     78.9782E-03
            2493            2664     63.2044E-03     71.2217E-03
            2494            2664     63.2044E-03     71.2217E-03
            2510            2664     63.2044E-03     71.2217E-03
            2511            2664     63.2044E-03     71.2217E-03
            2512            2665     57.7606E-03     65.6798E-03
            2495            2665     57.7606E-03     65.6798E-03
            2494            2665     57.7606E-03     65.6798E-03
            2511            2665     57.7606E-03     65.6798E-03
            2496            2666     53.5126E-03     61.2502E-03
            2513            2666     53.5126E-03     61.2502E-03
            2495            2666     53.5126E-03     61.2502E-03
            2512            2666     53.5126E-03     61.2502E-03
            2513            2667     49.4671E-03     57.0089E-03
            2497            2667     49.4671E-03     57.0089E-03
            2514            2667     49.4671E-03     57.0089E-03
            2496            2667     49.4671E-03     57.0089E-03
            2497            2668     45.6296E-03     52.9503E-03
            2515            2668     45.6296E-03     52.9503E-03
            2498            2668     45.6296E-03     52.9503E-03
            2514            2668     45.6296E-03     52.9503E-03
            2498            2669     41.9395E-03     48.9472E-03
            2499            2669     41.9395E-03     48.9472E-03
            2516            2669     41.9395E-03     48.9472E-03
            2515            2669     41.9395E-03     48.9472E-03
            2499            2670     38.4745E-03     45.0944E-03
            2517            2670     38.4745E-03     45.0944E-03
            2516            2670     38.4745E-03     45.0944E-03
            2500            2670     38.4745E-03     45.0944E-03
            2501            2671     35.3391E-03     41.3968E-03
            2517            2671     35.3391E-03     41.3968E-03
            2518            2671     35.3391E-03     41.3968E-03
            2500            2671     35.3391E-03     41.3968E-03
            2501            2672     32.5863E-03     37.8990E-03
            2502            2672     32.5863E-03     37.8990E-03
            2519            2672     32.5863E-03     37.8990E-03
            2518            2672     32.5863E-03     37.8990E-03
            2520            2673     30.3561E-03     34.6028E-03
            2502            2673     30.3561E-03     34.6028E-03
            2503            2673     30.3561E-03     34.6028E-03
            2519            2673     30.3561E-03     34.6028E-03
            2503            2674     28.5640E-03     31.5548E-03
            2520            2674     28.5640E-03     31.5548E-03
            2521            2674     28.5640E-03     31.5548E-03
            2504            2674     28.5640E-03     31.5548E-03
            2505            2675     27.5276E-03     29.1705E-03
            2504            2675     27.5276E-03     29.1705E-03
            2521            2675     27.5276E-03     29.1705E-03
            2522            2675     27.5276E-03     29.1705E-03
            2506            2676     26.8636E-03     26.8159E-03
            2505            2676     26.8636E-03     26.8159E-03
            2523            2676     26.8636E-03     26.8159E-03
            2522            2676     26.8636E-03     26.8159E-03
            2524            2677     107.810E-03     108.543E-03
            2525            2677     107.810E-03     108.543E-03
            2508            2677     107.810E-03     108.543E-03
            2507            2677     107.810E-03     108.543E-03
            2509            2678     86.5573E-03     90.2387E-03
            2526            2678     86.5573E-03     90.2387E-03
            2525            2678     86.5573E-03     90.2387E-03
            2508            2678     86.5573E-03     90.2387E-03
            2509            2679     73.1186E-03     78.4419E-03
            2527            2679     73.1186E-03     78.4419E-03
            2510            2679     73.1186E-03     78.4419E-03
            2526            2679     73.1186E-03     78.4419E-03
            2527            2680     66.3581E-03     71.9171E-03
            2510            2680     66.3581E-03     71.9171E-03
            2528            2680     66.3581E-03     71.9171E-03
            2511            2680     66.3581E-03     71.9171E-03
            2528            2681     61.5304E-03     66.7991E-03
            2512            2681     61.5304E-03     66.7991E-03
            2529            2681     61.5304E-03     66.7991E-03
            2511            2681     61.5304E-03     66.7991E-03
            2512            2682     57.0492E-03     62.1413E-03
            2529            2682     57.0492E-03     62.1413E-03
            2513            2682     57.0492E-03     62.1413E-03
            2530            2682     57.0492E-03     62.1413E-03
            2530            2683     52.8952E-03     57.7906E-03
            2513            2683     52.8952E-03     57.7906E-03
            2514            2683     52.8952E-03     57.7906E-03
            2531            2683     52.8952E-03     57.7906E-03
            2532            2684     48.9001E-03     53.6060E-03
            2514            2684     48.9001E-03     53.6060E-03
            2531            2684     48.9001E-03     53.6060E-03
            2515            2684     48.9001E-03     53.6060E-03
            2515            2685     45.1512E-03     49.6352E-03
            2516            2685     45.1512E-03     49.6352E-03
            2533            2685     45.1512E-03     49.6352E-03
            2532            2685     45.1512E-03     49.6352E-03
            2516            2686     41.6961E-03     45.8834E-03
            2517            2686     41.6961E-03     45.8834E-03
            2534            2686     41.6961E-03     45.8834E-03
            2533            2686     41.6961E-03     45.8834E-03
            2518            2687     38.5883E-03     42.3987E-03
            2517            2687     38.5883E-03     42.3987E-03
            2534            2687     38.5883E-03     42.3987E-03
            2535            2687     38.5883E-03     42.3987E-03
            2518            2688     35.9363E-03     39.2356E-03
            2536            2688     35.9363E-03     39.2356E-03
            2519            2688     35.9363E-03     39.2356E-03
            2535            2688     35.9363E-03     39.2356E-03
            2536            2689     33.7633E-03     36.2870E-03
            2520            2689     33.7633E-03     36.2870E-03
            2519            2689     33.7633E-03     36.2870E-03
            2537            2689     33.7633E-03     36.2870E-03
            2520            2690     32.0434E-03     33.6198E-03
            2537            2690     32.0434E-03     33.6198E-03
            2521            2690     32.0434E-03     33.6198E-03
            2538            2690     32.0434E-03     33.6198E-03
            2539            2691     30.7055E-03     30.9044E-03
            2521            2691     30.7055E-03     30.9044E-03
            2538            2691     30.7055E-03     30.9044E-03
            2522            2691     30.7055E-03     30.9044E-03
            2539            2692     29.1967E-03     27.0608E-03
            2540            2692     29.1967E-03     27.0608E-03
            2523            2692     29.1967E-03     27.0608E-03
            2522            2692     29.1967E-03     27.0608E-03
            2524            2693     88.2564E-03     90.5370E-03
            2542            2693     88.2564E-03     90.5370E-03
            2541            2693     88.2564E-03     90.5370E-03
            2525            2693     88.2564E-03     90.5370E-03
            2543            2694     78.4739E-03     80.8512E-03
            2526            2694     78.4739E-03     80.8512E-03
            2542            2694     78.4739E-03     80.8512E-03
            2525            2694     78.4739E-03     80.8512E-03
            2544            2695     73.4125E-03     76.4161E-03
            2543            2695     73.4125E-03     76.4161E-03
            2526            2695     73.4125E-03     76.4161E-03
            2527            2695     73.4125E-03     76.4161E-03
            2528            2696     69.0436E-03     71.9983E-03
            2545            2696     69.0436E-03     71.9983E-03
            2544            2696     69.0436E-03     71.9983E-03
            2527            2696     69.0436E-03     71.9983E-03
            2529            2697     64.8100E-03     67.4862E-03
            2546            2697     64.8100E-03     67.4862E-03
            2545            2697     64.8100E-03     67.4862E-03
            2528            2697     64.8100E-03     67.4862E-03
            2529            2698     60.3110E-03     62.7857E-03
            2547            2698     60.3110E-03     62.7857E-03
            2530            2698     60.3110E-03     62.7857E-03
            2546            2698     60.3110E-03     62.7857E-03
            2530            2699     55.9684E-03     58.3231E-03
            2547            2699     55.9684E-03     58.3231E-03
            2548            2699     55.9684E-03     58.3231E-03
            2531            2699     55.9684E-03     58.3231E-03
            2548            2700     51.8708E-03     54.0973E-03
            2549            2700     51.8708E-03     54.0973E-03
            2532            2700     51.8708E-03     54.0973E-03
            2531            2700     51.8708E-03     54.0973E-03
            2532            2701     48.0814E-03     50.1810E-03
            2550            2701     48.0814E-03     50.1810E-03
            2549            2701     48.0814E-03     50.1810E-03
            2533            2701     48.0814E-03     50.1810E-03
            2551            2702     44.6353E-03     46.5859E-03
            2550            2702     44.6353E-03     46.5859E-03
            2534            2702     44.6353E-03     46.5859E-03
            2533            2702     44.6353E-03     46.5859E-03
            2535            2703     41.5931E-03     43.3547E-03
            2534            2703     41.5931E-03     43.3547E-03
            2552            2703     41.5931E-03     43.3547E-03
            2551            2703     41.5931E-03     43.3547E-03
            2552            2704     38.9627E-03     40.4847E-03
            2553            2704     38.9627E-03     40.4847E-03
            2535            2704     38.9627E-03     40.4847E-03
            2536            2704     38.9627E-03     40.4847E-03
            2554            2705     36.7996E-03     38.0122E-03
            2553            2705     36.7996E-03     38.0122E-03
            2537            2705     36.7996E-03     38.0122E-03
            2536            2705     36.7996E-03     38.0122E-03
            2538            2706     35.1536E-03     35.4798E-03
            2554            2706     35.1536E-03     35.4798E-03
            2555            2706     35.1536E-03     35.4798E-03
            2537            2706     35.1536E-03     35.4798E-03
            2555            2707     33.6042E-03     32.1223E-03
            2538            2707     33.6042E-03     32.1223E-03
            2556            2707     33.6042E-03     32.1223E-03
            2539            2707     33.6042E-03     32.1223E-03
            2539            2708     31.6258E-03     28.3688E-03
            2556            2708     31.6258E-03     28.3688E-03
            2540            2708     31.6258E-03     28.3688E-03
            2557            2708     31.6258E-03     28.3688E-03
            2542            2709     69.9663E-03     70.2186E-03
            2541            2709     69.9663E-03     70.2186E-03
            2559            2709     69.9663E-03     70.2186E-03
            2558            2709     69.9663E-03     70.2186E-03
            2560            2710     66.8240E-03     68.9254E-03
            2559            2710     66.8240E-03     68.9254E-03
            2542            2710     66.8240E-03     68.9254E-03
            2543            2710     66.8240E-03     68.9254E-03
            2543            2711     70.5555E-03     71.6058E-03
            2560            2711     70.5555E-03     71.6058E-03
            2544            2711     70.5555E-03     71.6058E-03
            2561            2711     70.5555E-03     71.6058E-03
            2544            2712     70.2076E-03     70.3016E-03
            2562            2712     70.2076E-03     70.3016E-03
            2545            2712     70.2076E-03     70.3016E-03
            2561            2712     70.2076E-03     70.3016E-03
            2545            2713     66.5923E-03     66.5707E-03
            2563            2713     66.5923E-03     66.5707E-03
            2562            2713     66.5923E-03     66.5707E-03
            2546            2713     66.5923E-03     66.5707E-03
            2563            2714     62.5511E-03     62.4156E-03
            2546            2714     62.5511E-03     62.4156E-03
            2547            2714     62.5511E-03     62.4156E-03
            2564            2714     62.5511E-03     62.4156E-03
            2548            2715     58.3068E-03     58.1475E-03
            2547            2715     58.3068E-03     58.1475E-03
            2565            2715     58.3068E-03     58.1475E-03
            2564            2715     58.3068E-03     58.1475E-03
            2548            2716     54.3320E-03     54.1716E-03
            2566            2716     54.3320E-03     54.1716E-03
            2549            2716     54.3320E-03     54.1716E-03
            2565            2716     54.3320E-03     54.1716E-03
            2549            2717     50.6468E-03     50.4916E-03
            2550            2717     50.6468E-03     50.4916E-03
            2567            2717     50.6468E-03     50.4916E-03
            2566            2717     50.6468E-03     50.4916E-03
            2550            2718     47.3154E-03     47.1699E-03
            2568            2718     47.3154E-03     47.1699E-03
            2567            2718     47.3154E-03     47.1699E-03
            2551            2718     47.3154E-03     47.1699E-03
            2568            2719     44.3391E-03     44.2283E-03
            2551            2719     44.3391E-03     44.2283E-03
            2552            2719     44.3391E-03     44.2283E-03
            2569            2719     44.3391E-03     44.2283E-03
            2552            2720     41.7537E-03     41.6866E-03
            2569            2720     41.7537E-03     41.6866E-03
            2553            2720     41.7537E-03     41.6866E-03
            2570            2720     41.7537E-03     41.6866E-03
            2553            2721     39.5195E-03     39.5504E-03
            2554            2721     39.5195E-03     39.5504E-03
            2571            2721     39.5195E-03     39.5504E-03
            2570            2721     39.5195E-03     39.5504E-03
            2571            2722     37.6541E-03     37.5485E-03
            2554            2722     37.6541E-03     37.5485E-03
            2555            2722     37.6541E-03     37.5485E-03
            2572            2722     37.6541E-03     37.5485E-03
            2555            2723     36.1022E-03     34.8020E-03
            2556            2723     36.1022E-03     34.8020E-03
            2573            2723     36.1022E-03     34.8020E-03
            2572            2723     36.1022E-03     34.8020E-03
            2556            2724     34.0378E-03     31.0150E-03
            2573            2724     34.0378E-03     31.0150E-03
            2557            2724     34.0378E-03     31.0150E-03
            2574            2724     34.0378E-03     31.0150E-03
            2558            2725     51.6977E-03     51.2859E-03
            2576            2725     51.6977E-03     51.2859E-03
            2559            2725     51.6977E-03     51.2859E-03
            2575            2725     51.6977E-03     51.2859E-03
            2560            2726     57.7080E-03     56.7353E-03
            2559            2726     57.7080E-03     56.7353E-03
            2577            2726     57.7080E-03     56.7353E-03
            2576            2726     57.7080E-03     56.7353E-03
            2577            2727     67.0895E-03     64.6528E-03
            2560            2727     67.0895E-03     64.6528E-03
            2578            2727     67.0895E-03     64.6528E-03
            2561            2727     67.0895E-03     64.6528E-03
            2578            2728     68.4808E-03     65.6377E-03
            2579            2728     68.4808E-03     65.6377E-03
            2561            2728     68.4808E-03     65.6377E-03
            2562            2728     68.4808E-03     65.6377E-03
            2563            2729     66.6595E-03     63.7401E-03
            2579            2729     66.6595E-03     63.7401E-03
            2562            2729     66.6595E-03     63.7401E-03
            2580            2729     66.6595E-03     63.7401E-03
            2563            2730     63.3372E-03     60.5692E-03
            2581            2730     63.3372E-03     60.5692E-03
            2580            2730     63.3372E-03     60.5692E-03
            2564            2730     63.3372E-03     60.5692E-03
            2565            2731     59.8033E-03     57.1721E-03
            2581            2731     59.8033E-03     57.1721E-03
            2564            2731     59.8033E-03     57.1721E-03
            2582            2731     59.8033E-03     57.1721E-03
            2582            2732     56.2561E-03     53.7913E-03
            2583            2732     56.2561E-03     53.7913E-03
            2565            2732     56.2561E-03     53.7913E-03
            2566            2732     56.2561E-03     53.7913E-03
            2583            2733     52.9162E-03     50.6263E-03
            2584            2733     52.9162E-03     50.6263E-03
            2566            2733     52.9162E-03     50.6263E-03
            2567            2733     52.9162E-03     50.6263E-03
            2584            2734     49.8107E-03     47.7262E-03
            2568            2734     49.8107E-03     47.7262E-03
            2585            2734     49.8107E-03     47.7262E-03
            2567            2734     49.8107E-03     47.7262E-03
            2586            2735     46.9733E-03     45.1277E-03
            2569            2735     46.9733E-03     45.1277E-03
            2568            2735     46.9733E-03     45.1277E-03
            2585            2735     46.9733E-03     45.1277E-03
            2587            2736     44.4217E-03     42.9074E-03
            2570            2736     44.4217E-03     42.9074E-03
            2586            2736     44.4217E-03     42.9074E-03
            2569            2736     44.4217E-03     42.9074E-03
            2588            2737     42.1364E-03     40.9948E-03
            2587            2737     42.1364E-03     40.9948E-03
            2570            2737     42.1364E-03     40.9948E-03
            2571            2737     42.1364E-03     40.9948E-03
            2589            2738     39.9362E-03     39.6028E-03
            2572            2738     39.9362E-03     39.6028E-03
            2588            2738     39.9362E-03     39.6028E-03
            2571            2738     39.9362E-03     39.6028E-03
            2590            2739     37.9139E-03     38.4579E-03
            2589            2739     37.9139E-03     38.4579E-03
            2572            2739     37.9139E-03     38.4579E-03
            2573            2739     37.9139E-03     38.4579E-03
            2573            2740     36.2342E-03     35.5522E-03
            2574            2740     36.2342E-03     35.5522E-03
            2591            2740     36.2342E-03     35.5522E-03
            2590            2740     36.2342E-03     35.5522E-03
            2575            2741     38.9632E-03     37.6188E-03
            2576            2741     38.9632E-03     37.6188E-03
            2592            2741     38.9632E-03     37.6188E-03
            2593            2741     38.9632E-03     37.6188E-03
            2576            2742     51.2448E-03     44.4314E-03
            2594            2742     51.2448E-03     44.4314E-03
            2577            2742     51.2448E-03     44.4314E-03
            2593            2742     51.2448E-03     44.4314E-03
            2577            2743     61.5931E-03     54.8046E-03
            2594            2743     61.5931E-03     54.8046E-03
            2578            2743     61.5931E-03     54.8046E-03
            2595            2743     61.5931E-03     54.8046E-03
            2578            2744     64.7857E-03     58.6171E-03
            2579            2744     64.7857E-03     58.6171E-03
            2595            2744     64.7857E-03     58.6171E-03
            2596            2744     64.7857E-03     58.6171E-03
            2579            2745     64.8519E-03     59.1282E-03
            2580            2745     64.8519E-03     59.1282E-03
            2597            2745     64.8519E-03     59.1282E-03
            2596            2745     64.8519E-03     59.1282E-03
            2580            2746     63.1748E-03     57.8067E-03
            2598            2746     63.1748E-03     57.8067E-03
            2581            2746     63.1748E-03     57.8067E-03
            2597            2746     63.1748E-03     57.8067E-03
            2598            2747     60.6993E-03     55.7271E-03
            2581            2747     60.6993E-03     55.7271E-03
            2582            2747     60.6993E-03     55.7271E-03
            2599            2747     60.6993E-03     55.7271E-03
            2583            2748     57.9440E-03     53.3077E-03
            2582            2748     57.9440E-03     53.3077E-03
            2600            2748     57.9440E-03     53.3077E-03
            2599            2748     57.9440E-03     53.3077E-03
            2600            2749     55.1031E-03     50.8475E-03
            2584            2749     55.1031E-03     50.8475E-03
            2583            2749     55.1031E-03     50.8475E-03
            2601            2749     55.1031E-03     50.8475E-03
            2585            2750     52.3184E-03     48.4711E-03
            2584            2750     52.3184E-03     48.4711E-03
            2602            2750     52.3184E-03     48.4711E-03
            2601            2750     52.3184E-03     48.4711E-03
            2603            2751     49.6760E-03     46.2784E-03
            2586            2751     49.6760E-03     46.2784E-03
            2585            2751     49.6760E-03     46.2784E-03
            2602            2751     49.6760E-03     46.2784E-03
            2587            2752     47.1661E-03     44.3054E-03
            2586            2752     47.1661E-03     44.3054E-03
            2603            2752     47.1661E-03     44.3054E-03
            2604            2752     47.1661E-03     44.3054E-03
            2604            2753     44.8609E-03     42.6396E-03
            2587            2753     44.8609E-03     42.6396E-03
            2605            2753     44.8609E-03     42.6396E-03
            2588            2753     44.8609E-03     42.6396E-03
            2589            2754     42.5705E-03     41.2822E-03
            2606            2754     42.5705E-03     41.2822E-03
            2588            2754     42.5705E-03     41.2822E-03
            2605            2754     42.5705E-03     41.2822E-03
            2606            2755     40.1818E-03     40.7250E-03
            2590            2755     40.1818E-03     40.7250E-03
            2589            2755     40.1818E-03     40.7250E-03
            2607            2755     40.1818E-03     40.7250E-03
            2608            2756     37.3959E-03     40.3028E-03
            2591            2756     37.3959E-03     40.3028E-03
            2590            2756     37.3959E-03     40.3028E-03
            2607            2756     37.3959E-03     40.3028E-03
            2610            2757     21.5425E-03     20.5696E-03
            2609            2757     21.5425E-03     20.5696E-03
            2592            2757     21.5425E-03     20.5696E-03
            2593            2757     21.5425E-03     20.5696E-03
            2593            2758     28.0838E-03     22.8563E-03
            2594            2758     28.0838E-03     22.8563E-03
            2611            2758     28.0838E-03     22.8563E-03
            2610            2758     28.0838E-03     22.8563E-03
            2612            2759     32.4284E-03     28.0269E-03
            2594            2759     32.4284E-03     28.0269E-03
            2595            2759     32.4284E-03     28.0269E-03
            2611            2759     32.4284E-03     28.0269E-03
            2595            2760     34.6006E-03     30.6952E-03
            2613            2760     34.6006E-03     30.6952E-03
            2596            2760     34.6006E-03     30.6952E-03
            2612            2760     34.6006E-03     30.6952E-03
            2613            2761     34.8156E-03     31.2829E-03
            2614            2761     34.8156E-03     31.2829E-03
            2596            2761     34.8156E-03     31.2829E-03
            2597            2761     34.8156E-03     31.2829E-03
            2614            2762     34.2529E-03     30.9843E-03
            2597            2762     34.2529E-03     30.9843E-03
            2598            2762     34.2529E-03     30.9843E-03
            2615            2762     34.2529E-03     30.9843E-03
            2598            2763     33.0900E-03     30.0548E-03
            2616            2763     33.0900E-03     30.0548E-03
            2599            2763     33.0900E-03     30.0548E-03
            2615            2763     33.0900E-03     30.0548E-03
            2599            2764     31.6932E-03     28.8727E-03
            2600            2764     31.6932E-03     28.8727E-03
            2616            2764     31.6932E-03     28.8727E-03
            2617            2764     31.6932E-03     28.8727E-03
            2601            2765     30.1789E-03     27.6005E-03
            2618            2765     30.1789E-03     27.6005E-03
            2600            2765     30.1789E-03     27.6005E-03
            2617            2765     30.1789E-03     27.6005E-03
            2618            2766     28.6507E-03     26.3027E-03
            2602            2766     28.6507E-03     26.3027E-03
            2601            2766     28.6507E-03     26.3027E-03
            2619            2766     28.6507E-03     26.3027E-03
            2603            2767     27.1541E-03     25.0933E-03
            2602            2767     27.1541E-03     25.0933E-03
            2620            2767     27.1541E-03     25.0933E-03
            2619            2767     27.1541E-03     25.0933E-03
            2621            2768     25.7202E-03     23.9345E-03
            2603            2768     25.7202E-03     23.9345E-03
            2620            2768     25.7202E-03     23.9345E-03
            2604            2768     25.7202E-03     23.9345E-03
            2622            2769     24.3793E-03     22.9695E-03
            2604            2769     24.3793E-03     22.9695E-03
            2605            2769     24.3793E-03     22.9695E-03
            2621            2769     24.3793E-03     22.9695E-03
            2622            2770     23.0819E-03     22.0249E-03
            2605            2770     23.0819E-03     22.0249E-03
            2623            2770     23.0819E-03     22.0249E-03
            2606            2770     23.0819E-03     22.0249E-03
            2623            2771     21.8654E-03     21.5621E-03
            2624            2771     21.8654E-03     21.5621E-03
            2607            2771     21.8654E-03     21.5621E-03
            2606            2771     21.8654E-03     21.5621E-03
            2625            2772     19.9267E-03     21.5342E-03
            2608            2772     19.9267E-03     21.5342E-03
            2607            2772     19.9267E-03     21.5342E-03
            2624            2772     19.9267E-03     21.5342E-03
            2643            2773     238.856E-06     256.863E-06
            2626            2773     238.856E-06     256.863E-06
            2644            2773     238.856E-06     256.863E-06
            2627            2773     238.856E-06     256.863E-06
            2627            2774     239.781E-06     253.770E-06
            2644            2774     239.781E-06     253.770E-06
            2645            2774     239.781E-06     253.770E-06
            2628            2774     239.781E-06     253.770E-06
            2628            2775     240.695E-06     256.176E-06
            2646            2775     240.695E-06     256.176E-06
            2629            2775     240.695E-06     256.176E-06
            2645            2775     240.695E-06     256.176E-06
            2629            2776     240.601E-06     260.411E-06
            2646            2776     240.601E-06     260.411E-06
            2647            2776     240.601E-06     260.411E-06
            2630            2776     240.601E-06     260.411E-06
            2630            2777     241.175E-06     264.163E-06
            2647            2777     241.175E-06     264.163E-06
            2631            2777     241.175E-06     264.163E-06
            2648            2777     241.175E-06     264.163E-06
            2631            2778     243.121E-06     268.649E-06
            2648            2778     243.121E-06     268.649E-06
            2632            2778     243.121E-06     268.649E-06
            2649            2778     243.121E-06     268.649E-06
            2633            2779     245.722E-06     273.594E-06
            2650            2779     245.722E-06     273.594E-06
            2632            2779     245.722E-06     273.594E-06
            2649            2779     245.722E-06     273.594E-06
            2651            2780     249.413E-06     278.994E-06
            2633            2780     249.413E-06     278.994E-06
            2634            2780     249.413E-06     278.994E-06
            2650            2780     249.413E-06     278.994E-06
            2635            2781     253.881E-06     285.059E-06
            2651            2781     253.881E-06     285.059E-06
            2634            2781     253.881E-06     285.059E-06
            2652            2781     253.881E-06     285.059E-06
            2635            2782     259.448E-06     291.508E-06
            2652            2782     259.448E-06     291.508E-06
            2636            2782     259.448E-06     291.508E-06
            2653            2782     259.448E-06     291.508E-06
            2637            2783     265.853E-06     298.625E-06
            2653            2783     265.853E-06     298.625E-06
            2636            2783     265.853E-06     298.625E-06
            2654            2783     265.853E-06     298.625E-06
            2654            2784     272.454E-06     305.596E-06
            2637            2784     272.454E-06     305.596E-06
            2655            2784     272.454E-06     305.596E-06
            2638            2784     272.454E-06     305.596E-06
            2638            2785     279.819E-06     313.323E-06
            2639            2785     279.819E-06     313.323E-06
            2655            2785     279.819E-06     313.323E-06
            2656            2785     279.819E-06     313.323E-06
            2639            2786     281.655E-06     317.817E-06
            2656            2786     281.655E-06     317.817E-06
            2640            2786     281.655E-06     317.817E-06
            2657            2786     281.655E-06     317.817E-06
            2640            2787     298.540E-06     333.682E-06
            2641            2787     298.540E-06     333.682E-06
            2657            2787     298.540E-06     333.682E-06
            2658            2787     298.540E-06     333.682E-06
            2642            2788     367.181E-06     397.817E-06
            2659            2788     367.181E-06     397.817E-06
            2641            2788     367.181E-06     397.817E-06
            2658            2788     367.181E-06     397.817E-06
            2660            2789     264.784E-06     242.775E-06
            2644            2789     264.784E-06     242.775E-06
            2661            2789     264.784E-06     242.775E-06
            2643            2789     264.784E-06     242.775E-06
            2661            2790     253.218E-06     256.948E-06
            2645            2790     253.218E-06     256.948E-06
            2644            2790     253.218E-06     256.948E-06
            2662            2790     253.218E-06     256.948E-06
            2662            2791     248.247E-06     260.696E-06
            2663            2791     248.247E-06     260.696E-06
            2645            2791     248.247E-06     260.696E-06
            2646            2791     248.247E-06     260.696E-06
            2663            2792     249.227E-06     261.412E-06
            2664            2792     249.227E-06     261.412E-06
            2647            2792     249.227E-06     261.412E-06
            2646            2792     249.227E-06     261.412E-06
            2664            2793     251.261E-06     264.204E-06
            2648            2793     251.261E-06     264.204E-06
            2665            2793     251.261E-06     264.204E-06
            2647            2793     251.261E-06     264.204E-06
            2648            2794     253.766E-06     267.758E-06
            2649            2794     253.766E-06     267.758E-06
            2665            2794     253.766E-06     267.758E-06
            2666            2794     253.766E-06     267.758E-06
            2649            2795     257.209E-06     271.958E-06
            2666            2795     257.209E-06     271.958E-06
            2650            2795     257.209E-06     271.958E-06
            2667            2795     257.209E-06     271.958E-06
            2650            2796     261.288E-06     276.725E-06
            2668            2796     261.288E-06     276.725E-06
            2651            2796     261.288E-06     276.725E-06
            2667            2796     261.288E-06     276.725E-06
            2668            2797     266.163E-06     282.038E-06
            2651            2797     266.163E-06     282.038E-06
            2652            2797     266.163E-06     282.038E-06
            2669            2797     266.163E-06     282.038E-06
            2669            2798     271.925E-06     288.207E-06
            2670            2798     271.925E-06     288.207E-06
            2653            2798     271.925E-06     288.207E-06
            2652            2798     271.925E-06     288.207E-06
            2654            2799     278.844E-06     295.340E-06
            2670            2799     278.844E-06     295.340E-06
            2653            2799     278.844E-06     295.340E-06
            2671            2799     278.844E-06     295.340E-06
            2672            2800     287.525E-06     304.100E-06
            2655            2800     287.525E-06     304.100E-06
            2671            2800     287.525E-06     304.100E-06
            2654            2800     287.525E-06     304.100E-06
            2673            2801     297.210E-06     313.965E-06
            2672            2801     297.210E-06     313.965E-06
            2656            2801     297.210E-06     313.965E-06
            2655            2801     297.210E-06     313.965E-06
            2674            2802     305.724E-06     322.715E-06
            2657            2802     305.724E-06     322.715E-06
            2656            2802     305.724E-06     322.715E-06
            2673            2802     305.724E-06     322.715E-06
            2657            2803     300.207E-06     320.177E-06
            2675            2803     300.207E-06     320.177E-06
            2658            2803     300.207E-06     320.177E-06
            2674            2803     300.207E-06     320.177E-06
            2658            2804     288.868E-06     295.521E-06
            2675            2804     288.868E-06     295.521E-06
            2676            2804     288.868E-06     295.521E-06
            2659            2804     288.868E-06     295.521E-06
            2661            2805     272.511E-06     251.466E-06
            2677            2805     272.511E-06     251.466E-06
            2660            2805     272.511E-06     251.466E-06
            2678            2805     272.511E-06     251.466E-06
            2662            2806     262.092E-06     262.612E-06
            2679            2806     262.092E-06     262.612E-06
            2678            2806     262.092E-06     262.612E-06
            2661            2806     262.092E-06     262.612E-06
            2662            2807     259.133E-06     264.093E-06
            2663            2807     259.133E-06     264.093E-06
            2679            2807     259.133E-06     264.093E-06
            2680            2807     259.133E-06     264.093E-06
            2680            2808     261.325E-06     263.726E-06
            2681            2808     261.325E-06     263.726E-06
            2664            2808     261.325E-06     263.726E-06
            2663            2808     261.325E-06     263.726E-06
            2664            2809     264.114E-06     265.450E-06
            2665            2809     264.114E-06     265.450E-06
            2682            2809     264.114E-06     265.450E-06
            2681            2809     264.114E-06     265.450E-06
            2682            2810     267.313E-06     267.952E-06
            2683            2810     267.313E-06     267.952E-06
            2665            2810     267.313E-06     267.952E-06
            2666            2810     267.313E-06     267.952E-06
            2684            2811     271.122E-06     271.161E-06
            2683            2811     271.122E-06     271.161E-06
            2667            2811     271.122E-06     271.161E-06
            2666            2811     271.122E-06     271.161E-06
            2667            2812     275.351E-06     274.871E-06
            2684            2812     275.351E-06     274.871E-06
            2668            2812     275.351E-06     274.871E-06
            2685            2812     275.351E-06     274.871E-06
            2669            2813     280.132E-06     279.174E-06
            2668            2813     280.132E-06     279.174E-06
            2686            2813     280.132E-06     279.174E-06
            2685            2813     280.132E-06     279.174E-06
            2669            2814     285.482E-06     284.152E-06
            2670            2814     285.482E-06     284.152E-06
            2686            2814     285.482E-06     284.152E-06
            2687            2814     285.482E-06     284.152E-06
            2671            2815     291.805E-06     290.169E-06
            2688            2815     291.805E-06     290.169E-06
            2670            2815     291.805E-06     290.169E-06
            2687            2815     291.805E-06     290.169E-06
            2689            2816     299.656E-06     297.841E-06
            2688            2816     299.656E-06     297.841E-06
            2672            2816     299.656E-06     297.841E-06
            2671            2816     299.656E-06     297.841E-06
            2689            2817     307.638E-06     305.252E-06
            2690            2817     307.638E-06     305.252E-06
            2672            2817     307.638E-06     305.252E-06
            2673            2817     307.638E-06     305.252E-06
            2673            2818     314.601E-06     311.116E-06
            2691            2818     314.601E-06     311.116E-06
            2690            2818     314.601E-06     311.116E-06
            2674            2818     314.601E-06     311.116E-06
            2692            2819     279.335E-06     284.040E-06
            2674            2819     279.335E-06     284.040E-06
            2691            2819     279.335E-06     284.040E-06
            2675            2819     279.335E-06     284.040E-06
            2692            2820     185.153E-06     198.952E-06
            2693            2820     185.153E-06     198.952E-06
            2675            2820     185.153E-06     198.952E-06
            2676            2820     185.153E-06     198.952E-06
            2678            2821     262.396E-06     278.823E-06
            2694            2821     262.396E-06     278.823E-06
            2677            2821     262.396E-06     278.823E-06
            2695            2821     262.396E-06     278.823E-06
            2678            2822     268.001E-06     269.107E-06
            2696            2822     268.001E-06     269.107E-06
            2679            2822     268.001E-06     269.107E-06
            2695            2822     268.001E-06     269.107E-06
            2697            2823     273.251E-06     266.575E-06
            2679            2823     273.251E-06     266.575E-06
            2696            2823     273.251E-06     266.575E-06
            2680            2823     273.251E-06     266.575E-06
            2697            2824     276.462E-06     267.337E-06
            2681            2824     276.462E-06     267.337E-06
            2698            2824     276.462E-06     267.337E-06
            2680            2824     276.462E-06     267.337E-06
            2698            2825     279.595E-06     267.889E-06
            2699            2825     279.595E-06     267.889E-06
            2682            2825     279.595E-06     267.889E-06
            2681            2825     279.595E-06     267.889E-06
            2699            2826     283.467E-06     269.381E-06
            2683            2826     283.467E-06     269.381E-06
            2682            2826     283.467E-06     269.381E-06
            2700            2826     283.467E-06     269.381E-06
            2683            2827     287.346E-06     271.360E-06
            2684            2827     287.346E-06     271.360E-06
            2700            2827     287.346E-06     271.360E-06
            2701            2827     287.346E-06     271.360E-06
            2701            2828     291.610E-06     273.847E-06
            2685            2828     291.610E-06     273.847E-06
            2684            2828     291.610E-06     273.847E-06
            2702            2828     291.610E-06     273.847E-06
            2703            2829     295.914E-06     276.832E-06
            2702            2829     295.914E-06     276.832E-06
            2686            2829     295.914E-06     276.832E-06
            2685            2829     295.914E-06     276.832E-06
            2704            2830     300.420E-06     280.115E-06
            2687            2830     300.420E-06     280.115E-06
            2686            2830     300.420E-06     280.115E-06
            2703            2830     300.420E-06     280.115E-06
            2704            2831     304.884E-06     283.534E-06
            2688            2831     304.884E-06     283.534E-06
            2705            2831     304.884E-06     283.534E-06
            2687            2831     304.884E-06     283.534E-06
            2688            2832     308.398E-06     286.324E-06
            2705            2832     308.398E-06     286.324E-06
            2689            2832     308.398E-06     286.324E-06
            2706            2832     308.398E-06     286.324E-06
            2690            2833     309.842E-06     286.517E-06
            2689            2833     309.842E-06     286.517E-06
            2706            2833     309.842E-06     286.517E-06
            2707            2833     309.842E-06     286.517E-06
            2691            2834     297.710E-06     274.243E-06
            2690            2834     297.710E-06     274.243E-06
            2707            2834     297.710E-06     274.243E-06
            2708            2834     297.710E-06     274.243E-06
            2708            2835     256.851E-06     233.093E-06
            2691            2835     256.851E-06     233.093E-06
            2709            2835     256.851E-06     233.093E-06
            2692            2835     256.851E-06     233.093E-06
            2709            2836     145.683E-06     156.662E-06
            2692            2836     145.683E-06     156.662E-06
            2693            2836     145.683E-06     156.662E-06
            2710            2836     145.683E-06     156.662E-06
            2711            2837     212.892E-03     224.887E-03
            2712            2837     212.892E-03     224.887E-03
            2729            2837     212.892E-03     224.887E-03
            2728            2837     212.892E-03     224.887E-03
            2729            2838     189.024E-03     199.107E-03
            2713            2838     189.024E-03     199.107E-03
            2730            2838     189.024E-03     199.107E-03
            2712            2838     189.024E-03     199.107E-03
            2730            2839     174.591E-03     184.828E-03
            2731            2839     174.591E-03     184.828E-03
            2714            2839     174.591E-03     184.828E-03
            2713            2839     174.591E-03     184.828E-03
            2731            2840     161.006E-03     171.563E-03
            2732            2840     161.006E-03     171.563E-03
            2715            2840     161.006E-03     171.563E-03
            2714            2840     161.006E-03     171.563E-03
            2732            2841     147.771E-03     158.291E-03
            2733            2841     147.771E-03     158.291E-03
            2715            2841     147.771E-03     158.291E-03
            2716            2841     147.771E-03     158.291E-03
            2734            2842     134.287E-03     144.899E-03
            2717            2842     134.287E-03     144.899E-03
            2733            2842     134.287E-03     144.899E-03
            2716            2842     134.287E-03     144.899E-03
            2735            2843     120.875E-03     131.442E-03
            2717            2843     120.875E-03     131.442E-03
            2718            2843     120.875E-03     131.442E-03
            2734            2843     120.875E-03     131.442E-03
            2719            2844     107.399E-03     117.998E-03
            2736            2844     107.399E-03     117.998E-03
            2735            2844     107.399E-03     117.998E-03
            2718            2844     107.399E-03     117.998E-03
            2719            2845     94.0222E-03     104.557E-03
            2737            2845     94.0222E-03     104.557E-03
            2736            2845     94.0222E-03     104.557E-03
            2720            2845     94.0222E-03     104.557E-03
            2737            2846     80.6680E-03     91.1727E-03
            2738            2846     80.6680E-03     91.1727E-03
            2720            2846     80.6680E-03     91.1727E-03
            2721            2846     80.6680E-03     91.1727E-03
            2738            2847     67.4819E-03     77.8495E-03
            2739            2847     67.4819E-03     77.8495E-03
            2721            2847     67.4819E-03     77.8495E-03
            2722            2847     67.4819E-03     77.8495E-03
            2722            2848     54.4840E-03     64.6478E-03
            2723            2848     54.4840E-03     64.6478E-03
            2740            2848     54.4840E-03     64.6478E-03
            2739            2848     54.4840E-03     64.6478E-03
            2723            2849     41.9097E-03     51.7272E-03
            2740            2849     41.9097E-03     51.7272E-03
            2741            2849     41.9097E-03     51.7272E-03
            2724            2849     41.9097E-03     51.7272E-03
            2725            2850     30.3470E-03     39.0201E-03
            2741            2850     30.3470E-03     39.0201E-03
            2742            2850     30.3470E-03     39.0201E-03
            2724            2850     30.3470E-03     39.0201E-03
            2742            2851     20.6381E-03     26.6081E-03
            2743            2851     20.6381E-03     26.6081E-03
            2726            2851     20.6381E-03     26.6081E-03
            2725            2851     20.6381E-03     26.6081E-03
            2743            2852     16.7978E-03     16.8616E-03
            2726            2852     16.7978E-03     16.8616E-03
            2727            2852     16.7978E-03     16.8616E-03
            2744            2852     16.7978E-03     16.8616E-03
            2728            2853     207.542E-03     217.434E-03
            2745            2853     207.542E-03     217.434E-03
            2746            2853     207.542E-03     217.434E-03
            2729            2853     207.542E-03     217.434E-03
            2747            2854     178.226E-03     190.838E-03
            2729            2854     178.226E-03     190.838E-03
            2730            2854     178.226E-03     190.838E-03
            2746            2854     178.226E-03     190.838E-03
            2730            2855     162.879E-03     175.444E-03
            2748            2855     162.879E-03     175.444E-03
            2731            2855     162.879E-03     175.444E-03
            2747            2855     162.879E-03     175.444E-03
            2732            2856     150.655E-03     163.042E-03
            2748            2856     150.655E-03     163.042E-03
            2731            2856     150.655E-03     163.042E-03
            2749            2856     150.655E-03     163.042E-03
            2733            2857     138.014E-03     150.551E-03
            2749            2857     138.014E-03     150.551E-03
            2732            2857     138.014E-03     150.551E-03
            2750            2857     138.014E-03     150.551E-03
            2734            2858     125.657E-03     138.197E-03
            2750            2858     125.657E-03     138.197E-03
            2751            2858     125.657E-03     138.197E-03
            2733            2858     125.657E-03     138.197E-03
            2752            2859     113.225E-03     125.737E-03
            2751            2859     113.225E-03     125.737E-03
            2735            2859     113.225E-03     125.737E-03
            2734            2859     113.225E-03     125.737E-03
            2735            2860     100.930E-03     113.448E-03
            2752            2860     100.930E-03     113.448E-03
            2736            2860     100.930E-03     113.448E-03
            2753            2860     100.930E-03     113.448E-03
            2736            2861     88.7462E-03     101.172E-03
            2737            2861     88.7462E-03     101.172E-03
            2753            2861     88.7462E-03     101.172E-03
            2754            2861     88.7462E-03     101.172E-03
            2737            2862     76.7459E-03     89.0815E-03
            2738            2862     76.7459E-03     89.0815E-03
            2755            2862     76.7459E-03     89.0815E-03
            2754            2862     76.7459E-03     89.0815E-03
            2756            2863     65.0314E-03     77.1372E-03
            2738            2863     65.0314E-03     77.1372E-03
            2755            2863     65.0314E-03     77.1372E-03
            2739            2863     65.0314E-03     77.1372E-03
            2740            2864     53.7790E-03     65.5607E-03
            2739            2864     53.7790E-03     65.5607E-03
            2757            2864     53.7790E-03     65.5607E-03
            2756            2864     53.7790E-03     65.5607E-03
            2758            2865     43.4533E-03     54.4628E-03
            2740            2865     43.4533E-03     54.4628E-03
            2741            2865     43.4533E-03     54.4628E-03
            2757            2865     43.4533E-03     54.4628E-03
            2758            2866     34.9017E-03     44.3333E-03
            2759            2866     34.9017E-03     44.3333E-03
            2741            2866     34.9017E-03     44.3333E-03
            2742            2866     34.9017E-03     44.3333E-03
            2760            2867     29.8219E-03     35.4775E-03
            2759            2867     29.8219E-03     35.4775E-03
            2742            2867     29.8219E-03     35.4775E-03
            2743            2867     29.8219E-03     35.4775E-03
            2743            2868     28.4553E-03     26.5502E-03
            2744            2868     28.4553E-03     26.5502E-03
            2760            2868     28.4553E-03     26.5502E-03
            2761            2868     28.4553E-03     26.5502E-03
            2746            2869     196.462E-03     198.485E-03
            2762            2869     196.462E-03     198.485E-03
            2763            2869     196.462E-03     198.485E-03
            2745            2869     196.462E-03     198.485E-03
            2747            2870     184.095E-03     187.984E-03
            2763            2870     184.095E-03     187.984E-03
            2764            2870     184.095E-03     187.984E-03
            2746            2870     184.095E-03     187.984E-03
            2765            2871     169.988E-03     173.665E-03
            2748            2871     169.988E-03     173.665E-03
            2764            2871     169.988E-03     173.665E-03
            2747            2871     169.988E-03     173.665E-03
            2765            2872     157.002E-03     160.553E-03
            2749            2872     157.002E-03     160.553E-03
            2748            2872     157.002E-03     160.553E-03
            2766            2872     157.002E-03     160.553E-03
            2767            2873     144.378E-03     147.822E-03
            2750            2873     144.378E-03     147.822E-03
            2749            2873     144.378E-03     147.822E-03
            2766            2873     144.378E-03     147.822E-03
            2751            2874     131.943E-03     135.361E-03
            2767            2874     131.943E-03     135.361E-03
            2750            2874     131.943E-03     135.361E-03
            2768            2874     131.943E-03     135.361E-03
            2752            2875     119.695E-03     123.139E-03
            2769            2875     119.695E-03     123.139E-03
            2751            2875     119.695E-03     123.139E-03
            2768            2875     119.695E-03     123.139E-03
            2753            2876     107.597E-03     110.995E-03
            2752            2876     107.597E-03     110.995E-03
            2770            2876     107.597E-03     110.995E-03
            2769            2876     107.597E-03     110.995E-03
            2753            2877     95.6551E-03     99.0474E-03
            2770            2877     95.6551E-03     99.0474E-03
            2771            2877     95.6551E-03     99.0474E-03
            2754            2877     95.6551E-03     99.0474E-03
            2755            2878     83.9514E-03     87.2766E-03
            2771            2878     83.9514E-03     87.2766E-03
            2754            2878     83.9514E-03     87.2766E-03
            2772            2878     83.9514E-03     87.2766E-03
            2772            2879     72.5550E-03     75.8208E-03
            2755            2879     72.5550E-03     75.8208E-03
            2773            2879     72.5550E-03     75.8208E-03
            2756            2879     72.5550E-03     75.8208E-03
            2756            2880     61.6899E-03     64.8106E-03
            2773            2880     61.6899E-03     64.8106E-03
            2757            2880     61.6899E-03     64.8106E-03
            2774            2880     61.6899E-03     64.8106E-03
            2757            2881     51.7600E-03     54.4755E-03
            2774            2881     51.7600E-03     54.4755E-03
            2775            2881     51.7600E-03     54.4755E-03
            2758            2881     51.7600E-03     54.4755E-03
            2759            2882     43.2273E-03     45.6912E-03
            2758            2882     43.2273E-03     45.6912E-03
            2775            2882     43.2273E-03     45.6912E-03
            2776            2882     43.2273E-03     45.6912E-03
            2759            2883     37.1311E-03     38.8476E-03
            2777            2883     37.1311E-03     38.8476E-03
            2760            2883     37.1311E-03     38.8476E-03
            2776            2883     37.1311E-03     38.8476E-03
            2778            2884     34.1206E-03     31.6675E-03
            2761            2884     34.1206E-03     31.6675E-03
            2760            2884     34.1206E-03     31.6675E-03
            2777            2884     34.1206E-03     31.6675E-03
            2762            2885     175.347E-03     171.934E-03
            2763            2885     175.347E-03     171.934E-03
            2780            2885     175.347E-03     171.934E-03
            2779            2885     175.347E-03     171.934E-03
            2780            2886     181.207E-03     175.376E-03
            2763            2886     181.207E-03     175.376E-03
            2781            2886     181.207E-03     175.376E-03
            2764            2886     181.207E-03     175.376E-03
            2782            2887     172.941E-03     167.207E-03
            2764            2887     172.941E-03     167.207E-03
            2781            2887     172.941E-03     167.207E-03
            2765            2887     172.941E-03     167.207E-03
            2766            2888     161.078E-03     155.660E-03
            2765            2888     161.078E-03     155.660E-03
            2782            2888     161.078E-03     155.660E-03
            2783            2888     161.078E-03     155.660E-03
            2783            2889     149.478E-03     143.930E-03
            2766            2889     149.478E-03     143.930E-03
            2784            2889     149.478E-03     143.930E-03
            2767            2889     149.478E-03     143.930E-03
            2785            2890     137.646E-03     132.226E-03
            2784            2890     137.646E-03     132.226E-03
            2767            2890     137.646E-03     132.226E-03
            2768            2890     137.646E-03     132.226E-03
            2769            2891     125.976E-03     120.556E-03
            2785            2891     125.976E-03     120.556E-03
            2768            2891     125.976E-03     120.556E-03
            2786            2891     125.976E-03     120.556E-03
            2787            2892     114.282E-03     108.954E-03
            2786            2892     114.282E-03     108.954E-03
            2769            2892     114.282E-03     108.954E-03
            2770            2892     114.282E-03     108.954E-03
            2770            2893     102.757E-03     97.5058E-03
            2788            2893     102.757E-03     97.5058E-03
            2771            2893     102.757E-03     97.5058E-03
            2787            2893     102.757E-03     97.5058E-03
            2789            2894     91.4023E-03     86.3133E-03
            2788            2894     91.4023E-03     86.3133E-03
            2771            2894     91.4023E-03     86.3133E-03
            2772            2894     91.4023E-03     86.3133E-03
            2790            2895     80.4034E-03     75.5321E-03
            2773            2895     80.4034E-03     75.5321E-03
            2789            2895     80.4034E-03     75.5321E-03
            2772            2895     80.4034E-03     75.5321E-03
            2774            2896     69.8778E-03     65.3170E-03
            2773            2896     69.8778E-03     65.3170E-03
            2790            2896     69.8778E-03     65.3170E-03
            2791            2896     69.8778E-03     65.3170E-03
            2792            2897     60.1335E-03     56.1136E-03
            2774            2897     60.1335E-03     56.1136E-03
            2791            2897     60.1335E-03     56.1136E-03
            2775            2897     60.1335E-03     56.1136E-03
            2792            2898     51.4159E-03     48.2453E-03
            2775            2898     51.4159E-03     48.2453E-03
            2793            2898     51.4159E-03     48.2453E-03
            2776            2898     51.4159E-03     48.2453E-03
            2793            2899     44.0137E-03     42.4603E-03
            2777            2899     44.0137E-03     42.4603E-03
            2794            2899     44.0137E-03     42.4603E-03
            2776            2899     44.0137E-03     42.4603E-03
            2794            2900     38.1711E-03     39.1657E-03
            2795            2900     38.1711E-03     39.1657E-03
            2777            2900     38.1711E-03     39.1657E-03
            2778            2900     38.1711E-03     39.1657E-03
            2802            2901     58.5660E-03     54.0882E-03
            2796            2901     58.5660E-03     54.0882E-03
            2797            2901     58.5660E-03     54.0882E-03
            2801            2901     58.5660E-03     54.0882E-03
            2803            2902     129.458E-03     118.201E-03
            2798            2902     129.458E-03     118.201E-03
            2802            2902     129.458E-03     118.201E-03
            2797            2902     129.458E-03     118.201E-03
            2803            2903     183.209E-03     171.678E-03
            2804            2903     183.209E-03     171.678E-03
            2799            2903     183.209E-03     171.678E-03
            2798            2903     183.209E-03     171.678E-03
            2799            2904     209.728E-03     203.746E-03
            2804            2904     209.728E-03     203.746E-03
            2805            2904     209.728E-03     203.746E-03
            2800            2904     209.728E-03     203.746E-03
            2806            2905     67.3648E-03     74.5845E-03
            2802            2905     67.3648E-03     74.5845E-03
            2801            2905     67.3648E-03     74.5845E-03
            2807            2905     67.3648E-03     74.5845E-03
            2803            2906     137.308E-03     141.658E-03
            2802            2906     137.308E-03     141.658E-03
            2807            2906     137.308E-03     141.658E-03
            2808            2906     137.308E-03     141.658E-03
            2804            2907     187.230E-03     194.918E-03
            2803            2907     187.230E-03     194.918E-03
            2808            2907     187.230E-03     194.918E-03
            2809            2907     187.230E-03     194.918E-03
            2805            2908     221.309E-03     230.291E-03
            2809            2908     221.309E-03     230.291E-03
            2804            2908     221.309E-03     230.291E-03
            2810            2908     221.309E-03     230.291E-03
            2812            2909     83.6848E-03     81.2064E-03
            2811            2909     83.6848E-03     81.2064E-03
            2807            2909     83.6848E-03     81.2064E-03
            2806            2909     83.6848E-03     81.2064E-03
            2808            2910     154.512E-03     148.954E-03
            2807            2910     154.512E-03     148.954E-03
            2812            2910     154.512E-03     148.954E-03
            2813            2910     154.512E-03     148.954E-03
            2814            2911     208.616E-03     207.530E-03
            2813            2911     208.616E-03     207.530E-03
            2809            2911     208.616E-03     207.530E-03
            2808            2911     208.616E-03     207.530E-03
            2810            2912     250.479E-03     251.891E-03
            2815            2912     250.479E-03     251.891E-03
            2809            2912     250.479E-03     251.891E-03
            2814            2912     250.479E-03     251.891E-03
            2816            2913     89.0230E-03     88.6189E-03
            2817            2913     89.0230E-03     88.6189E-03
            2811            2913     89.0230E-03     88.6189E-03
            2812            2913     89.0230E-03     88.6189E-03
            2813            2914     160.494E-03     157.239E-03
            2812            2914     160.494E-03     157.239E-03
            2818            2914     160.494E-03     157.239E-03
            2817            2914     160.494E-03     157.239E-03
            2814            2915     224.806E-03     221.180E-03
            2819            2915     224.806E-03     221.180E-03
            2818            2915     224.806E-03     221.180E-03
            2813            2915     224.806E-03     221.180E-03
            2814            2916     281.076E-03     273.300E-03
            2820            2916     281.076E-03     273.300E-03
            2819            2916     281.076E-03     273.300E-03
            2815            2916     281.076E-03     273.300E-03
            2837            2925     138.828E-03     141.212E-03
            2836            2925     138.828E-03     141.212E-03
            2842            2925     138.828E-03     141.212E-03
            2841            2925     138.828E-03     141.212E-03
            2843            2926     136.116E-03     137.867E-03
            2838            2926     136.116E-03     137.867E-03
            2842            2926     136.116E-03     137.867E-03
            2837            2926     136.116E-03     137.867E-03
            2838            2927     129.868E-03     130.388E-03
            2839            2927     129.868E-03     130.388E-03
            2844            2927     129.868E-03     130.388E-03
            2843            2927     129.868E-03     130.388E-03
            2845            2928     125.320E-03     124.537E-03
            2844            2928     125.320E-03     124.537E-03
            2839            2928     125.320E-03     124.537E-03
            2840            2928     125.320E-03     124.537E-03
            2841            2929     137.387E-03     147.563E-03
            2842            2929     137.387E-03     147.563E-03
            2847            2929     137.387E-03     147.563E-03
            2846            2929     137.387E-03     147.563E-03
            2847            2930     132.759E-03     141.433E-03
            2843            2930     132.759E-03     141.433E-03
            2842            2930     132.759E-03     141.433E-03
            2848            2930     132.759E-03     141.433E-03
            2843            2931     131.757E-03     133.465E-03
            2844            2931     131.757E-03     133.465E-03
            2848            2931     131.757E-03     133.465E-03
            2849            2931     131.757E-03     133.465E-03
            2844            2932     131.453E-03     129.753E-03
            2845            2932     131.453E-03     129.753E-03
            2850            2932     131.453E-03     129.753E-03
            2849            2932     131.453E-03     129.753E-03
            2847            2933     149.273E-03     149.304E-03
            2846            2933     149.273E-03     149.304E-03
            2851            2933     149.273E-03     149.304E-03
            2852            2933     149.273E-03     149.304E-03
            2853            2934     135.913E-03     134.029E-03
            2848            2934     135.913E-03     134.029E-03
            2847            2934     135.913E-03     134.029E-03
            2852            2934     135.913E-03     134.029E-03
            2854            2935     132.953E-03     128.091E-03
            2849            2935     132.953E-03     128.091E-03
            2848            2935     132.953E-03     128.091E-03
            2853            2935     132.953E-03     128.091E-03
            2850            2936     130.469E-03     126.833E-03
            2849            2936     130.469E-03     126.833E-03
            2855            2936     130.469E-03     126.833E-03
            2854            2936     130.469E-03     126.833E-03
            2852            2937     124.029E-03     119.392E-03
            2851            2937     124.029E-03     119.392E-03
            2857            2937     124.029E-03     119.392E-03
            2856            2937     124.029E-03     119.392E-03
            2852            2938     123.614E-03     118.415E-03
            2858            2938     123.614E-03     118.415E-03
            2857            2938     123.614E-03     118.415E-03
            2853            2938     123.614E-03     118.415E-03
            2853            2939     127.291E-03     122.127E-03
            2858            2939     127.291E-03     122.127E-03
            2859            2939     127.291E-03     122.127E-03
            2854            2939     127.291E-03     122.127E-03
            2855            2940     128.887E-03     127.640E-03
            2854            2940     128.887E-03     127.640E-03
            2860            2940     128.887E-03     127.640E-03
            2859            2940     128.887E-03     127.640E-03
            2857            2941     85.8014E-03     94.8858E-03
            2856            2941     85.8014E-03     94.8858E-03
            2862            2941     85.8014E-03     94.8858E-03
            2861            2941     85.8014E-03     94.8858E-03
            2863            2942     97.2120E-03     104.640E-03
            2857            2942     97.2120E-03     104.640E-03
            2858            2942     97.2120E-03     104.640E-03
            2862            2942     97.2120E-03     104.640E-03
            2863            2943     113.942E-03     117.084E-03
            2859            2943     113.942E-03     117.084E-03
            2858            2943     113.942E-03     117.084E-03
            2864            2943     113.942E-03     117.084E-03
            2860            2944     124.104E-03     125.287E-03
            2865            2944     124.104E-03     125.287E-03
            2859            2944     124.104E-03     125.287E-03
            2864            2944     124.104E-03     125.287E-03
            2861            2945     68.2652E-03     62.8602E-03
            2862            2945     68.2652E-03     62.8602E-03
            2867            2945     68.2652E-03     62.8602E-03
            2866            2945     68.2652E-03     62.8602E-03
            2867            2946     89.2884E-03     85.8066E-03
            2868            2946     89.2884E-03     85.8066E-03
            2862            2946     89.2884E-03     85.8066E-03
            2863            2946     89.2884E-03     85.8066E-03
            2868            2947     110.424E-03     109.680E-03
            2863            2947     110.424E-03     109.680E-03
            2864            2947     110.424E-03     109.680E-03
            2869            2947     110.424E-03     109.680E-03
            2864            2948     123.408E-03     123.014E-03
            2869            2948     123.408E-03     123.014E-03
            2870            2948     123.408E-03     123.014E-03
            2865            2948     123.408E-03     123.014E-03
            2872            2949     47.2387E-03     47.2168E-03
            2867            2949     47.2387E-03     47.2168E-03
            2871            2949     47.2387E-03     47.2168E-03
            2866            2949     47.2387E-03     47.2168E-03
            2868            2950     79.5129E-03     81.3999E-03
            2872            2950     79.5129E-03     81.3999E-03
            2873            2950     79.5129E-03     81.3999E-03
            2867            2950     79.5129E-03     81.3999E-03
            2869            2951     104.951E-03     107.077E-03
            2873            2951     104.951E-03     107.077E-03
            2874            2951     104.951E-03     107.077E-03
            2868            2951     104.951E-03     107.077E-03
            2870            2952     122.168E-03     121.840E-03
            2869            2952     122.168E-03     121.840E-03
            2874            2952     122.168E-03     121.840E-03
            2875            2952     122.168E-03     121.840E-03
            2872            2953     43.8678E-03     47.6243E-03
            2871            2953     43.8678E-03     47.6243E-03
            2877            2953     43.8678E-03     47.6243E-03
            2876            2953     43.8678E-03     47.6243E-03
            2872            2954     76.4671E-03     78.9869E-03
            2877            2954     76.4671E-03     78.9869E-03
            2873            2954     76.4671E-03     78.9869E-03
            2878            2954     76.4671E-03     78.9869E-03
            2873            2955     101.977E-03     103.571E-03
            2874            2955     101.977E-03     103.571E-03
            2879            2955     101.977E-03     103.571E-03
            2878            2955     101.977E-03     103.571E-03
            2875            2956     121.683E-03     120.196E-03
            2874            2956     121.683E-03     120.196E-03
            2879            2956     121.683E-03     120.196E-03
            2880            2956     121.683E-03     120.196E-03
            2882            2957     43.5553E-03     46.3665E-03
            2881            2957     43.5553E-03     46.3665E-03
            2876            2957     43.5553E-03     46.3665E-03
            2877            2957     43.5553E-03     46.3665E-03
            2877            2958     65.6020E-03     66.5337E-03
            2882            2958     65.6020E-03     66.5337E-03
            2878            2958     65.6020E-03     66.5337E-03
            2883            2958     65.6020E-03     66.5337E-03
            2884            2959     84.4381E-03     84.7584E-03
            2883            2959     84.4381E-03     84.7584E-03
            2878            2959     84.4381E-03     84.7584E-03
            2879            2959     84.4381E-03     84.7584E-03
            2880            2960     97.7614E-03     97.1211E-03
            2885            2960     97.7614E-03     97.1211E-03
            2884            2960     97.7614E-03     97.1211E-03
            2879            2960     97.7614E-03     97.1211E-03
            2916            2977     459.171E-06     468.363E-06
            2917            2977     459.171E-06     468.363E-06
            2921            2977     459.171E-06     468.363E-06
            2922            2977     459.171E-06     468.363E-06
            2922            2978     401.531E-06     401.068E-06
            2918            2978     401.531E-06     401.068E-06
            2917            2978     401.531E-06     401.068E-06
            2923            2978     401.531E-06     401.068E-06
            2924            2979     444.847E-06     431.728E-06
            2918            2979     444.847E-06     431.728E-06
            2923            2979     444.847E-06     431.728E-06
            2919            2979     444.847E-06     431.728E-06
            2924            2980     486.465E-06     473.095E-06
            2925            2980     486.465E-06     473.095E-06
            2920            2980     486.465E-06     473.095E-06
            2919            2980     486.465E-06     473.095E-06
            2927            2981     334.627E-06     305.616E-06
            2926            2981     334.627E-06     305.616E-06
            2921            2981     334.627E-06     305.616E-06
            2922            2981     334.627E-06     305.616E-06
            2922            2982     347.327E-06     316.431E-06
            2928            2982     347.327E-06     316.431E-06
            2927            2982     347.327E-06     316.431E-06
            2923            2982     347.327E-06     316.431E-06
            2929            2983     421.590E-06     403.672E-06
            2923            2983     421.590E-06     403.672E-06
            2924            2983     421.590E-06     403.672E-06
            2928            2983     421.590E-06     403.672E-06
            2925            2984     478.674E-06     471.422E-06
            2930            2984     478.674E-06     471.422E-06
            2924            2984     478.674E-06     471.422E-06
            2929            2984     478.674E-06     471.422E-06
            2926            2985     178.922E-06     205.835E-06
            2931            2985     178.922E-06     205.835E-06
            2927            2985     178.922E-06     205.835E-06
            2932            2985     178.922E-06     205.835E-06
            2927            2986     246.084E-06     268.708E-06
            2932            2986     246.084E-06     268.708E-06
            2933            2986     246.084E-06     268.708E-06
            2928            2986     246.084E-06     268.708E-06
            2928            2987     377.823E-06     388.704E-06
            2934            2987     377.823E-06     388.704E-06
            2933            2987     377.823E-06     388.704E-06
            2929            2987     377.823E-06     388.704E-06
            2935            2988     465.395E-06     463.288E-06
            2934            2988     465.395E-06     463.288E-06
            2930            2988     465.395E-06     463.288E-06
            2929            2988     465.395E-06     463.288E-06
            2936            2989     154.020E-06     176.672E-06
            2937            2989     154.020E-06     176.672E-06
            2932            2989     154.020E-06     176.672E-06
            2931            2989     154.020E-06     176.672E-06
            2938            2990     227.318E-06     233.534E-06
            2937            2990     227.318E-06     233.534E-06
            2933            2990     227.318E-06     233.534E-06
            2932            2990     227.318E-06     233.534E-06
            2938            2991     370.647E-06     367.118E-06
            2939            2991     370.647E-06     367.118E-06
            2933            2991     370.647E-06     367.118E-06
            2934            2991     370.647E-06     367.118E-06
            2935            2992     466.987E-06     456.316E-06
            2939            2992     466.987E-06     456.316E-06
            2940            2992     466.987E-06     456.316E-06
            2934            2992     466.987E-06     456.316E-06
            2971            3011     367.181E-06     397.817E-06
            2988            3011     367.181E-06     397.817E-06
            2989            3011     367.181E-06     397.817E-06
            2972            3011     367.181E-06     397.817E-06
            2989            3012     298.540E-06     333.682E-06
            2990            3012     298.540E-06     333.682E-06
            2972            3012     298.540E-06     333.682E-06
            2973            3012     298.540E-06     333.682E-06
            2973            3013     281.655E-06     317.817E-06
            2990            3013     281.655E-06     317.817E-06
            2991            3013     281.655E-06     317.817E-06
            2974            3013     281.655E-06     317.817E-06
            2992            3014     279.819E-06     313.323E-06
            2974            3014     279.819E-06     313.323E-06
            2975            3014     279.819E-06     313.323E-06
            2991            3014     279.819E-06     313.323E-06
            2993            3015     272.454E-06     305.596E-06
            2975            3015     272.454E-06     305.596E-06
            2992            3015     272.454E-06     305.596E-06
            2976            3015     272.454E-06     305.596E-06
            2993            3016     265.853E-06     298.625E-06
            2976            3016     265.853E-06     298.625E-06
            2977            3016     265.853E-06     298.625E-06
            2994            3016     265.853E-06     298.625E-06
            2995            3017     259.448E-06     291.508E-06
            2978            3017     259.448E-06     291.508E-06
            2994            3017     259.448E-06     291.508E-06
            2977            3017     259.448E-06     291.508E-06
            2995            3018     253.881E-06     285.059E-06
            2996            3018     253.881E-06     285.059E-06
            2978            3018     253.881E-06     285.059E-06
            2979            3018     253.881E-06     285.059E-06
            2980            3019     249.413E-06     278.994E-06
            2997            3019     249.413E-06     278.994E-06
            2996            3019     249.413E-06     278.994E-06
            2979            3019     249.413E-06     278.994E-06
            2998            3020     245.722E-06     273.594E-06
            2997            3020     245.722E-06     273.594E-06
            2981            3020     245.722E-06     273.594E-06
            2980            3020     245.722E-06     273.594E-06
            2981            3021     243.121E-06     268.649E-06
            2998            3021     243.121E-06     268.649E-06
            2999            3021     243.121E-06     268.649E-06
            2982            3021     243.121E-06     268.649E-06
            3000            3022     241.175E-06     264.163E-06
            2982            3022     241.175E-06     264.163E-06
            2999            3022     241.175E-06     264.163E-06
            2983            3022     241.175E-06     264.163E-06
            2983            3023     240.601E-06     260.411E-06
            2984            3023     240.601E-06     260.411E-06
            3000            3023     240.601E-06     260.411E-06
            3001            3023     240.601E-06     260.411E-06
            3002            3024     240.695E-06     256.176E-06
            2984            3024     240.695E-06     256.176E-06
            2985            3024     240.695E-06     256.176E-06
            3001            3024     240.695E-06     256.176E-06
            2985            3025     239.781E-06     253.770E-06
            3003            3025     239.781E-06     253.770E-06
            3002            3025     239.781E-06     253.770E-06
            2986            3025     239.781E-06     253.770E-06
            3003            3026     238.856E-06     256.863E-06
            2987            3026     238.856E-06     256.863E-06
            2986            3026     238.856E-06     256.863E-06
            3004            3026     238.856E-06     256.863E-06
            2989            3027     288.868E-06     295.521E-06
            2988            3027     288.868E-06     295.521E-06
            3006            3027     288.868E-06     295.521E-06
            3005            3027     288.868E-06     295.521E-06
            2989            3028     300.207E-06     320.177E-06
            2990            3028     300.207E-06     320.177E-06
            3006            3028     300.207E-06     320.177E-06
            3007            3028     300.207E-06     320.177E-06
            2991            3029     305.724E-06     322.715E-06
            3008            3029     305.724E-06     322.715E-06
            2990            3029     305.724E-06     322.715E-06
            3007            3029     305.724E-06     322.715E-06
            3009            3030     297.210E-06     313.965E-06
            2992            3030     297.210E-06     313.965E-06
            3008            3030     297.210E-06     313.965E-06
            2991            3030     297.210E-06     313.965E-06
            2992            3031     287.525E-06     304.100E-06
            2993            3031     287.525E-06     304.100E-06
            3010            3031     287.525E-06     304.100E-06
            3009            3031     287.525E-06     304.100E-06
            3011            3032     278.844E-06     295.340E-06
            2994            3032     278.844E-06     295.340E-06
            2993            3032     278.844E-06     295.340E-06
            3010            3032     278.844E-06     295.340E-06
            2995            3033     271.925E-06     288.207E-06
            2994            3033     271.925E-06     288.207E-06
            3011            3033     271.925E-06     288.207E-06
            3012            3033     271.925E-06     288.207E-06
            2995            3034     266.163E-06     282.038E-06
            2996            3034     266.163E-06     282.038E-06
            3012            3034     266.163E-06     282.038E-06
            3013            3034     266.163E-06     282.038E-06
            2997            3035     261.288E-06     276.725E-06
            3013            3035     261.288E-06     276.725E-06
            3014            3035     261.288E-06     276.725E-06
            2996            3035     261.288E-06     276.725E-06
            3015            3036     257.209E-06     271.958E-06
            2998            3036     257.209E-06     271.958E-06
            3014            3036     257.209E-06     271.958E-06
            2997            3036     257.209E-06     271.958E-06
            2999            3037     253.766E-06     267.758E-06
            2998            3037     253.766E-06     267.758E-06
            3015            3037     253.766E-06     267.758E-06
            3016            3037     253.766E-06     267.758E-06
            3000            3038     251.261E-06     264.204E-06
            3017            3038     251.261E-06     264.204E-06
            2999            3038     251.261E-06     264.204E-06
            3016            3038     251.261E-06     264.204E-06
            3001            3039     249.227E-06     261.412E-06
            3000            3039     249.227E-06     261.412E-06
            3017            3039     249.227E-06     261.412E-06
            3018            3039     249.227E-06     261.412E-06
            3002            3040     248.247E-06     260.696E-06
            3019            3040     248.247E-06     260.696E-06
            3001            3040     248.247E-06     260.696E-06
            3018            3040     248.247E-06     260.696E-06
            3003            3041     253.218E-06     256.948E-06
            3002            3041     253.218E-06     256.948E-06
            3019            3041     253.218E-06     256.948E-06
            3020            3041     253.218E-06     256.948E-06
            3021            3042     264.784E-06     242.775E-06
            3004            3042     264.784E-06     242.775E-06
            3003            3042     264.784E-06     242.775E-06
            3020            3042     264.784E-06     242.775E-06
            3005            3043     185.153E-06     198.952E-06
            3023            3043     185.153E-06     198.952E-06
            3006            3043     185.153E-06     198.952E-06
            3022            3043     185.153E-06     198.952E-06
            3023            3044     279.335E-06     284.040E-06
            3007            3044     279.335E-06     284.040E-06
            3006            3044     279.335E-06     284.040E-06
            3024            3044     279.335E-06     284.040E-06
            3008            3045     314.601E-06     311.116E-06
            3024            3045     314.601E-06     311.116E-06
            3007            3045     314.601E-06     311.116E-06
            3025            3045     314.601E-06     311.116E-06
            3025            3046     307.638E-06     305.252E-06
            3008            3046     307.638E-06     305.252E-06
            3009            3046     307.638E-06     305.252E-06
            3026            3046     307.638E-06     305.252E-06
            3027            3047     299.656E-06     297.841E-06
            3009            3047     299.656E-06     297.841E-06
            3010            3047     299.656E-06     297.841E-06
            3026            3047     299.656E-06     297.841E-06
            3027            3048     291.805E-06     290.169E-06
            3010            3048     291.805E-06     290.169E-06
            3028            3048     291.805E-06     290.169E-06
            3011            3048     291.805E-06     290.169E-06
            3028            3049     285.482E-06     284.152E-06
            3029            3049     285.482E-06     284.152E-06
            3012            3049     285.482E-06     284.152E-06
            3011            3049     285.482E-06     284.152E-06
            3029            3050     280.132E-06     279.174E-06
            3012            3050     280.132E-06     279.174E-06
            3013            3050     280.132E-06     279.174E-06
            3030            3050     280.132E-06     279.174E-06
            3030            3051     275.351E-06     274.871E-06
            3014            3051     275.351E-06     274.871E-06
            3031            3051     275.351E-06     274.871E-06
            3013            3051     275.351E-06     274.871E-06
            3031            3052     271.122E-06     271.161E-06
            3014            3052     271.122E-06     271.161E-06
            3032            3052     271.122E-06     271.161E-06
            3015            3052     271.122E-06     271.161E-06
            3033            3053     267.313E-06     267.952E-06
            3015            3053     267.313E-06     267.952E-06
            3016            3053     267.313E-06     267.952E-06
            3032            3053     267.313E-06     267.952E-06
            3016            3054     264.114E-06     265.450E-06
            3034            3054     264.114E-06     265.450E-06
            3033            3054     264.114E-06     265.450E-06
            3017            3054     264.114E-06     265.450E-06
            3034            3055     261.325E-06     263.726E-06
            3018            3055     261.325E-06     263.726E-06
            3017            3055     261.325E-06     263.726E-06
            3035            3055     261.325E-06     263.726E-06
            3036            3056     259.133E-06     264.093E-06
            3019            3056     259.133E-06     264.093E-06
            3018            3056     259.133E-06     264.093E-06
            3035            3056     259.133E-06     264.093E-06
            3036            3057     262.092E-06     262.612E-06
            3019            3057     262.092E-06     262.612E-06
            3020            3057     262.092E-06     262.612E-06
            3037            3057     262.092E-06     262.612E-06
            3020            3058     272.511E-06     251.466E-06
            3037            3058     272.511E-06     251.466E-06
            3021            3058     272.511E-06     251.466E-06
            3038            3058     272.511E-06     251.466E-06
            3039            3059     145.683E-06     156.662E-06
            3023            3059     145.683E-06     156.662E-06
            3022            3059     145.683E-06     156.662E-06
            3040            3059     145.683E-06     156.662E-06
            3024            3060     256.851E-06     233.093E-06
            3041            3060     256.851E-06     233.093E-06
            3040            3060     256.851E-06     233.093E-06
            3023            3060     256.851E-06     233.093E-06
            3024            3061     297.710E-06     274.243E-06
            3041            3061     297.710E-06     274.243E-06
            3025            3061     297.710E-06     274.243E-06
            3042            3061     297.710E-06     274.243E-06
            3025            3062     309.842E-06     286.517E-06
            3043            3062     309.842E-06     286.517E-06
            3042            3062     309.842E-06     286.517E-06
            3026            3062     309.842E-06     286.517E-06
            3026            3063     308.398E-06     286.324E-06
            3043            3063     308.398E-06     286.324E-06
            3044            3063     308.398E-06     286.324E-06
            3027            3063     308.398E-06     286.324E-06
            3027            3064     304.884E-06     283.534E-06
            3044            3064     304.884E-06     283.534E-06
            3028            3064     304.884E-06     283.534E-06
            3045            3064     304.884E-06     283.534E-06
            3028            3065     300.420E-06     280.115E-06
            3046            3065     300.420E-06     280.115E-06
            3045            3065     300.420E-06     280.115E-06
            3029            3065     300.420E-06     280.115E-06
            3046            3066     295.914E-06     276.832E-06
            3047            3066     295.914E-06     276.832E-06
            3030            3066     295.914E-06     276.832E-06
            3029            3066     295.914E-06     276.832E-06
            3031            3067     291.610E-06     273.847E-06
            3048            3067     291.610E-06     273.847E-06
            3030            3067     291.610E-06     273.847E-06
            3047            3067     291.610E-06     273.847E-06
            3031            3068     287.346E-06     271.360E-06
            3032            3068     287.346E-06     271.360E-06
            3048            3068     287.346E-06     271.360E-06
            3049            3068     287.346E-06     271.360E-06
            3032            3069     283.467E-06     269.381E-06
            3033            3069     283.467E-06     269.381E-06
            3050            3069     283.467E-06     269.381E-06
            3049            3069     283.467E-06     269.381E-06
            3051            3070     279.595E-06     267.889E-06
            3050            3070     279.595E-06     267.889E-06
            3034            3070     279.595E-06     267.889E-06
            3033            3070     279.595E-06     267.889E-06
            3034            3071     276.462E-06     267.337E-06
            3052            3071     276.462E-06     267.337E-06
            3035            3071     276.462E-06     267.337E-06
            3051            3071     276.462E-06     267.337E-06
            3052            3072     273.251E-06     266.575E-06
            3036            3072     273.251E-06     266.575E-06
            3035            3072     273.251E-06     266.575E-06
            3053            3072     273.251E-06     266.575E-06
            3036            3073     268.001E-06     269.107E-06
            3037            3073     268.001E-06     269.107E-06
            3053            3073     268.001E-06     269.107E-06
            3054            3073     268.001E-06     269.107E-06
            3037            3074     262.396E-06     278.823E-06
            3038            3074     262.396E-06     278.823E-06
            3055            3074     262.396E-06     278.823E-06
            3054            3074     262.396E-06     278.823E-06
            3056            3075     23.1717E-03     26.2388E-03
            3074            3075     23.1717E-03     26.2388E-03
            3073            3075     23.1717E-03     26.2388E-03
            3057            3075     23.1717E-03     26.2388E-03
            3074            3076     27.5728E-03     30.3522E-03
            3057            3076     27.5728E-03     30.3522E-03
            3075            3076     27.5728E-03     30.3522E-03
            3058            3076     27.5728E-03     30.3522E-03
            3075            3077     34.2003E-03     37.0661E-03
            3076            3077     34.2003E-03     37.0661E-03
            3059            3077     34.2003E-03     37.0661E-03
            3058            3077     34.2003E-03     37.0661E-03
            3076            3078     41.2568E-03     44.0687E-03
            3077            3078     41.2568E-03     44.0687E-03
            3060            3078     41.2568E-03     44.0687E-03
            3059            3078     41.2568E-03     44.0687E-03
            3078            3079     48.6937E-03     51.4588E-03
            3060            3079     48.6937E-03     51.4588E-03
            3061            3079     48.6937E-03     51.4588E-03
            3077            3079     48.6937E-03     51.4588E-03
            3079            3080     56.3017E-03     59.0140E-03
            3061            3080     56.3017E-03     59.0140E-03
            3078            3080     56.3017E-03     59.0140E-03
            3062            3080     56.3017E-03     59.0140E-03
            3062            3081     64.0005E-03     66.7098E-03
            3080            3081     64.0005E-03     66.7098E-03
            3079            3081     64.0005E-03     66.7098E-03
            3063            3081     64.0005E-03     66.7098E-03
            3080            3082     71.8033E-03     74.4456E-03
            3063            3082     71.8033E-03     74.4456E-03
            3064            3082     71.8033E-03     74.4456E-03
            3081            3082     71.8033E-03     74.4456E-03
            3082            3083     79.5976E-03     82.2960E-03
            3065            3083     79.5976E-03     82.2960E-03
            3064            3083     79.5976E-03     82.2960E-03
            3081            3083     79.5976E-03     82.2960E-03
            3065            3084     87.5175E-03     90.0930E-03
            3082            3084     87.5175E-03     90.0930E-03
            3083            3084     87.5175E-03     90.0930E-03
            3066            3084     87.5175E-03     90.0930E-03
            3066            3085     95.3378E-03     98.0597E-03
            3083            3085     95.3378E-03     98.0597E-03
            3084            3085     95.3378E-03     98.0597E-03
            3067            3085     95.3378E-03     98.0597E-03
            3068            3086     103.351E-03     105.860E-03
            3085            3086     103.351E-03     105.860E-03
            3084            3086     103.351E-03     105.860E-03
            3067            3086     103.351E-03     105.860E-03
            3085            3087     111.203E-03     113.934E-03
            3069            3087     111.203E-03     113.934E-03
            3086            3087     111.203E-03     113.934E-03
            3068            3087     111.203E-03     113.934E-03
            3070            3088     119.134E-03     121.666E-03
            3087            3088     119.134E-03     121.666E-03
            3069            3088     119.134E-03     121.666E-03
            3086            3088     119.134E-03     121.666E-03
            3070            3089     127.449E-03     129.926E-03
            3087            3089     127.449E-03     129.926E-03
            3088            3089     127.449E-03     129.926E-03
            3071            3089     127.449E-03     129.926E-03
            3088            3090     134.671E-03     137.508E-03
            3089            3090     134.671E-03     137.508E-03
            3072            3090     134.671E-03     137.508E-03
            3071            3090     134.671E-03     137.508E-03
            3091            3091     22.6338E-03     22.7247E-03
            3074            3091     22.6338E-03     22.7247E-03
            3090            3091     22.6338E-03     22.7247E-03
            3073            3091     22.6338E-03     22.7247E-03
            3074            3092     26.5641E-03     23.4950E-03
            3075            3092     26.5641E-03     23.4950E-03
            3092            3092     26.5641E-03     23.4950E-03
            3091            3092     26.5641E-03     23.4950E-03
            3092            3093     31.1869E-03     27.4863E-03
            3075            3093     31.1869E-03     27.4863E-03
            3093            3093     31.1869E-03     27.4863E-03
            3076            3093     31.1869E-03     27.4863E-03
            3093            3094     36.1215E-03     32.3223E-03
            3076            3094     36.1215E-03     32.3223E-03
            3077            3094     36.1215E-03     32.3223E-03
            3094            3094     36.1215E-03     32.3223E-03
            3077            3095     41.4460E-03     37.6208E-03
            3078            3095     41.4460E-03     37.6208E-03
            3095            3095     41.4460E-03     37.6208E-03
            3094            3095     41.4460E-03     37.6208E-03
            3095            3096     47.0170E-03     43.1742E-03
            3096            3096     47.0170E-03     43.1742E-03
            3079            3096     47.0170E-03     43.1742E-03
            3078            3096     47.0170E-03     43.1742E-03
            3079            3097     52.7081E-03     48.8705E-03
            3096            3097     52.7081E-03     48.8705E-03
            3097            3097     52.7081E-03     48.8705E-03
            3080            3097     52.7081E-03     48.8705E-03
            3097            3098     58.5143E-03     54.6119E-03
            3080            3098     58.5143E-03     54.6119E-03
            3081            3098     58.5143E-03     54.6119E-03
            3098            3098     58.5143E-03     54.6119E-03
            3098            3099     64.3061E-03     60.4361E-03
            3082            3099     64.3061E-03     60.4361E-03
            3099            3099     64.3061E-03     60.4361E-03
            3081            3099     64.3061E-03     60.4361E-03
            3100            3100     70.1986E-03     66.2167E-03
            3099            3100     70.1986E-03     66.2167E-03
            3083            3100     70.1986E-03     66.2167E-03
            3082            3100     70.1986E-03     66.2167E-03
            3100            3101     76.0623E-03     72.1609E-03
            3101            3101     76.0623E-03     72.1609E-03
            3084            3101     76.0623E-03     72.1609E-03
            3083            3101     76.0623E-03     72.1609E-03
            3084            3102     82.2751E-03     78.1632E-03
            3101            3102     82.2751E-03     78.1632E-03
            3102            3102     82.2751E-03     78.1632E-03
            3085            3102     82.2751E-03     78.1632E-03
            3085            3103     89.0175E-03     85.0475E-03
            3103            3103     89.0175E-03     85.0475E-03
            3086            3103     89.0175E-03     85.0475E-03
            3102            3103     89.0175E-03     85.0475E-03
            3086            3104     97.0671E-03     92.9455E-03
            3103            3104     97.0671E-03     92.9455E-03
            3087            3104     97.0671E-03     92.9455E-03
            3104            3104     97.0671E-03     92.9455E-03
            3088            3105     109.389E-03     105.931E-03
            3087            3105     109.389E-03     105.931E-03
            3104            3105     109.389E-03     105.931E-03
            3105            3105     109.389E-03     105.931E-03
            3105            3106     126.283E-03     125.807E-03
            3088            3106     126.283E-03     125.807E-03
            3089            3106     126.283E-03     125.807E-03
            3106            3106     126.283E-03     125.807E-03
            3108            3107     17.8084E-03     23.6042E-03
            3107            3107     17.8084E-03     23.6042E-03
            3091            3107     17.8084E-03     23.6042E-03
            3090            3107     17.8084E-03     23.6042E-03
            3109            3108     17.3663E-03     23.7184E-03
            3108            3108     17.3663E-03     23.7184E-03
            3091            3108     17.3663E-03     23.7184E-03
            3092            3108     17.3663E-03     23.7184E-03
            3092            3109     19.2239E-03     26.0559E-03
            3109            3109     19.2239E-03     26.0559E-03
            3110            3109     19.2239E-03     26.0559E-03
            3093            3109     19.2239E-03     26.0559E-03
            3093            3110     21.7461E-03     29.2294E-03
            3094            3110     21.7461E-03     29.2294E-03
            3111            3110     21.7461E-03     29.2294E-03
            3110            3110     21.7461E-03     29.2294E-03
            3111            3111     24.8267E-03     32.8407E-03
            3112            3111     24.8267E-03     32.8407E-03
            3095            3111     24.8267E-03     32.8407E-03
            3094            3111     24.8267E-03     32.8407E-03
            3113            3112     28.3047E-03     36.6201E-03
            3096            3112     28.3047E-03     36.6201E-03
            3095            3112     28.3047E-03     36.6201E-03
            3112            3112     28.3047E-03     36.6201E-03
            3114            3113     31.9874E-03     40.5013E-03
            3096            3113     31.9874E-03     40.5013E-03
            3113            3113     31.9874E-03     40.5013E-03
            3097            3113     31.9874E-03     40.5013E-03
            3115            3114     35.7811E-03     44.4030E-03
            3098            3114     35.7811E-03     44.4030E-03
            3114            3114     35.7811E-03     44.4030E-03
            3097            3114     35.7811E-03     44.4030E-03
            3116            3115     39.6168E-03     48.3219E-03
            3098            3115     39.6168E-03     48.3219E-03
            3099            3115     39.6168E-03     48.3219E-03
            3115            3115     39.6168E-03     48.3219E-03
            3117            3116     43.4611E-03     52.2072E-03
            3100            3116     43.4611E-03     52.2072E-03
            3099            3116     43.4611E-03     52.2072E-03
            3116            3116     43.4611E-03     52.2072E-03
            3100            3117     47.4399E-03     56.2179E-03
            3118            3117     47.4399E-03     56.2179E-03
            3101            3117     47.4399E-03     56.2179E-03
            3117            3117     47.4399E-03     56.2179E-03
            3102            3118     51.6636E-03     60.4740E-03
            3118            3118     51.6636E-03     60.4740E-03
            3119            3118     51.6636E-03     60.4740E-03
            3101            3118     51.6636E-03     60.4740E-03
            3119            3119     57.1974E-03     65.9695E-03
            3120            3119     57.1974E-03     65.9695E-03
            3102            3119     57.1974E-03     65.9695E-03
            3103            3119     57.1974E-03     65.9695E-03
            3121            3120     65.1703E-03     74.0147E-03
            3120            3120     65.1703E-03     74.0147E-03
            3104            3120     65.1703E-03     74.0147E-03
            3103            3120     65.1703E-03     74.0147E-03
            3104            3121     80.6263E-03     89.6511E-03
            3122            3121     80.6263E-03     89.6511E-03
            3105            3121     80.6263E-03     89.6511E-03
            3121            3121     80.6263E-03     89.6511E-03
            3106            3122     115.194E-03     122.807E-03
            3122            3122     115.194E-03     122.807E-03
            3105            3122     115.194E-03     122.807E-03
            3123            3122     115.194E-03     122.807E-03
            3124            3123     23.4724E-03     22.9199E-03
            3107            3123     23.4724E-03     22.9199E-03
            3108            3123     23.4724E-03     22.9199E-03
            3125            3123     23.4724E-03     22.9199E-03
            3126            3124     21.4142E-03     24.0956E-03
            3125            3124     21.4142E-03     24.0956E-03
            3109            3124     21.4142E-03     24.0956E-03
            3108            3124     21.4142E-03     24.0956E-03
            3109            3125     22.2472E-03     26.2227E-03
            3126            3125     22.2472E-03     26.2227E-03
            3110            3125     22.2472E-03     26.2227E-03
            3127            3125     22.2472E-03     26.2227E-03
            3110            3126     24.6596E-03     29.2922E-03
            3111            3126     24.6596E-03     29.2922E-03
            3128            3126     24.6596E-03     29.2922E-03
            3127            3126     24.6596E-03     29.2922E-03
            3128            3127     27.6801E-03     32.7427E-03
            3111            3127     27.6801E-03     32.7427E-03
            3112            3127     27.6801E-03     32.7427E-03
            3129            3127     27.6801E-03     32.7427E-03
            3112            3128     31.1464E-03     36.4379E-03
            3130            3128     31.1464E-03     36.4379E-03
            3113            3128     31.1464E-03     36.4379E-03
            3129            3128     31.1464E-03     36.4379E-03
            3113            3129     34.8280E-03     40.2708E-03
            3114            3129     34.8280E-03     40.2708E-03
            3130            3129     34.8280E-03     40.2708E-03
            3131            3129     34.8280E-03     40.2708E-03
            3115            3130     38.6380E-03     44.1916E-03
            3114            3130     38.6380E-03     44.1916E-03
            3132            3130     38.6380E-03     44.1916E-03
            3131            3130     38.6380E-03     44.1916E-03
            3132            3131     42.5267E-03     48.1564E-03
            3133            3131     42.5267E-03     48.1564E-03
            3115            3131     42.5267E-03     48.1564E-03
            3116            3131     42.5267E-03     48.1564E-03
            3117            3132     46.4842E-03     52.1854E-03
            3134            3132     46.4842E-03     52.1854E-03
            3116            3132     46.4842E-03     52.1854E-03
            3133            3132     46.4842E-03     52.1854E-03
            3118            3133     50.5010E-03     56.2935E-03
            3134            3133     50.5010E-03     56.2935E-03
            3117            3133     50.5010E-03     56.2935E-03
            3135            3133     50.5010E-03     56.2935E-03
            3136            3134     54.7855E-03     60.6818E-03
            3135            3134     54.7855E-03     60.6818E-03
            3118            3134     54.7855E-03     60.6818E-03
            3119            3134     54.7855E-03     60.6818E-03
            3136            3135     59.6370E-03     65.7005E-03
            3137            3135     59.6370E-03     65.7005E-03
            3119            3135     59.6370E-03     65.7005E-03
            3120            3135     59.6370E-03     65.7005E-03
            3137            3136     66.7303E-03     72.5393E-03
            3120            3136     66.7303E-03     72.5393E-03
            3138            3136     66.7303E-03     72.5393E-03
            3121            3136     66.7303E-03     72.5393E-03
            3139            3137     81.6035E-03     85.5472E-03
            3122            3137     81.6035E-03     85.5472E-03
            3121            3137     81.6035E-03     85.5472E-03
            3138            3137     81.6035E-03     85.5472E-03
            3140            3138     106.235E-03     106.826E-03
            3139            3138     106.235E-03     106.826E-03
            3122            3138     106.235E-03     106.826E-03
            3123            3138     106.235E-03     106.826E-03
            3125            3139     26.2508E-03     24.1699E-03
            3142            3139     26.2508E-03     24.1699E-03
            3124            3139     26.2508E-03     24.1699E-03
            3141            3139     26.2508E-03     24.1699E-03
            3143            3140     25.0827E-03     24.7214E-03
            3125            3140     25.0827E-03     24.7214E-03
            3126            3140     25.0827E-03     24.7214E-03
            3142            3140     25.0827E-03     24.7214E-03
            3143            3141     25.4340E-03     26.9412E-03
            3144            3141     25.4340E-03     26.9412E-03
            3126            3141     25.4340E-03     26.9412E-03
            3127            3141     25.4340E-03     26.9412E-03
            3127            3142     27.4810E-03     29.6765E-03
            3145            3142     27.4810E-03     29.6765E-03
            3128            3142     27.4810E-03     29.6765E-03
            3144            3142     27.4810E-03     29.6765E-03
            3145            3143     30.5247E-03     32.8618E-03
            3129            3143     30.5247E-03     32.8618E-03
            3128            3143     30.5247E-03     32.8618E-03
            3146            3143     30.5247E-03     32.8618E-03
            3146            3144     33.9159E-03     36.3716E-03
            3130            3144     33.9159E-03     36.3716E-03
            3147            3144     33.9159E-03     36.3716E-03
            3129            3144     33.9159E-03     36.3716E-03
            3147            3145     37.5473E-03     40.0874E-03
            3130            3145     37.5473E-03     40.0874E-03
            3131            3145     37.5473E-03     40.0874E-03
            3148            3145     37.5473E-03     40.0874E-03
            3149            3146     41.3477E-03     43.9543E-03
            3132            3146     41.3477E-03     43.9543E-03
            3148            3146     41.3477E-03     43.9543E-03
            3131            3146     41.3477E-03     43.9543E-03
            3149            3147     45.2888E-03     47.9560E-03
            3133            3147     45.2888E-03     47.9560E-03
            3150            3147     45.2888E-03     47.9560E-03
            3132            3147     45.2888E-03     47.9560E-03
            3134            3148     49.3681E-03     52.1066E-03
            3133            3148     49.3681E-03     52.1066E-03
            3150            3148     49.3681E-03     52.1066E-03
            3151            3148     49.3681E-03     52.1066E-03
            3152            3149     53.5485E-03     56.3754E-03
            3151            3149     53.5485E-03     56.3754E-03
            3134            3149     53.5485E-03     56.3754E-03
            3135            3149     53.5485E-03     56.3754E-03
            3153            3150     57.8763E-03     60.8529E-03
            3152            3150     57.8763E-03     60.8529E-03
            3136            3150     57.8763E-03     60.8529E-03
            3135            3150     57.8763E-03     60.8529E-03
            3136            3151     62.0391E-03     65.2737E-03
            3153            3151     62.0391E-03     65.2737E-03
            3137            3151     62.0391E-03     65.2737E-03
            3154            3151     62.0391E-03     65.2737E-03
            3155            3152     67.1139E-03     70.1792E-03
            3154            3152     67.1139E-03     70.1792E-03
            3138            3152     67.1139E-03     70.1792E-03
            3137            3152     67.1139E-03     70.1792E-03
            3156            3153     74.7351E-03     76.7754E-03
            3138            3153     74.7351E-03     76.7754E-03
            3139            3153     74.7351E-03     76.7754E-03
            3155            3153     74.7351E-03     76.7754E-03
            3157            3154     88.8907E-03     90.7569E-03
            3140            3154     88.8907E-03     90.7569E-03
            3156            3154     88.8907E-03     90.7569E-03
            3139            3154     88.8907E-03     90.7569E-03
            3141            3155     28.5709E-03     26.0651E-03
            3158            3155     28.5709E-03     26.0651E-03
            3142            3155     28.5709E-03     26.0651E-03
            3159            3155     28.5709E-03     26.0651E-03
            3159            3156     27.4173E-03     26.6010E-03
            3142            3156     27.4173E-03     26.6010E-03
            3160            3156     27.4173E-03     26.6010E-03
            3143            3156     27.4173E-03     26.6010E-03
            3160            3157     28.1435E-03     28.1354E-03
            3143            3157     28.1435E-03     28.1354E-03
            3144            3157     28.1435E-03     28.1354E-03
            3161            3157     28.1435E-03     28.1354E-03
            3144            3158     30.3993E-03     30.3513E-03
            3162            3158     30.3993E-03     30.3513E-03
            3161            3158     30.3993E-03     30.3513E-03
            3145            3158     30.3993E-03     30.3513E-03
            3145            3159     33.3398E-03     33.1865E-03
            3163            3159     33.3398E-03     33.1865E-03
            3146            3159     33.3398E-03     33.1865E-03
            3162            3159     33.3398E-03     33.1865E-03
            3164            3160     36.6046E-03     36.4076E-03
            3146            3160     36.6046E-03     36.4076E-03
            3147            3160     36.6046E-03     36.4076E-03
            3163            3160     36.6046E-03     36.4076E-03
            3165            3161     40.0992E-03     39.8794E-03
            3164            3161     40.0992E-03     39.8794E-03
            3147            3161     40.0992E-03     39.8794E-03
            3148            3161     40.0992E-03     39.8794E-03
            3166            3162     43.7819E-03     43.5627E-03
            3165            3162     43.7819E-03     43.5627E-03
            3148            3162     43.7819E-03     43.5627E-03
            3149            3162     43.7819E-03     43.5627E-03
            3166            3163     47.6574E-03     47.4414E-03
            3150            3163     47.6574E-03     47.4414E-03
            3149            3163     47.6574E-03     47.4414E-03
            3167            3163     47.6574E-03     47.4414E-03
            3167            3164     51.6845E-03     51.4854E-03
            3151            3164     51.6845E-03     51.4854E-03
            3168            3164     51.6845E-03     51.4854E-03
            3150            3164     51.6845E-03     51.4854E-03
            3168            3165     55.8835E-03     55.7210E-03
            3151            3165     55.8835E-03     55.7210E-03
            3152            3165     55.8835E-03     55.7210E-03
            3169            3165     55.8835E-03     55.7210E-03
            3169            3166     59.8498E-03     59.8238E-03
            3170            3166     59.8498E-03     59.8238E-03
            3153            3166     59.8498E-03     59.8238E-03
            3152            3166     59.8498E-03     59.8238E-03
            3153            3167     63.5396E-03     63.6314E-03
            3170            3167     63.5396E-03     63.6314E-03
            3154            3167     63.5396E-03     63.6314E-03
            3171            3167     63.5396E-03     63.6314E-03
            3172            3168     64.6437E-03     65.5544E-03
            3155            3168     64.6437E-03     65.5544E-03
            3154            3168     64.6437E-03     65.5544E-03
            3171            3168     64.6437E-03     65.5544E-03
            3173            3169     63.8247E-03     65.4365E-03
            3155            3169     63.8247E-03     65.4365E-03
            3156            3169     63.8247E-03     65.4365E-03
            3172            3169     63.8247E-03     65.4365E-03
            3156            3170     72.5680E-03     72.3326E-03
            3174            3170     72.5680E-03     72.3326E-03
            3157            3170     72.5680E-03     72.3326E-03
            3173            3170     72.5680E-03     72.3326E-03
            3175            3171     30.2843E-03     29.5350E-03
            3158            3171     30.2843E-03     29.5350E-03
            3159            3171     30.2843E-03     29.5350E-03
            3176            3171     30.2843E-03     29.5350E-03
            3159            3172     28.9917E-03     29.1668E-03
            3177            3172     28.9917E-03     29.1668E-03
            3176            3172     28.9917E-03     29.1668E-03
            3160            3172     28.9917E-03     29.1668E-03
            3178            3173     30.7782E-03     29.5944E-03
            3161            3173     30.7782E-03     29.5944E-03
            3177            3173     30.7782E-03     29.5944E-03
            3160            3173     30.7782E-03     29.5944E-03
            3162            3174     33.3748E-03     31.2988E-03
            3161            3174     33.3748E-03     31.2988E-03
            3178            3174     33.3748E-03     31.2988E-03
            3179            3174     33.3748E-03     31.2988E-03
            3163            3175     36.1400E-03     33.7325E-03
            3179            3175     36.1400E-03     33.7325E-03
            3180            3175     36.1400E-03     33.7325E-03
            3162            3175     36.1400E-03     33.7325E-03
            3163            3176     39.2024E-03     36.5478E-03
            3180            3176     39.2024E-03     36.5478E-03
            3164            3176     39.2024E-03     36.5478E-03
            3181            3176     39.2024E-03     36.5478E-03
            3164            3177     42.4597E-03     39.6547E-03
            3165            3177     42.4597E-03     39.6547E-03
            3182            3177     42.4597E-03     39.6547E-03
            3181            3177     42.4597E-03     39.6547E-03
            3182            3178     45.8986E-03     42.9675E-03
            3166            3178     45.8986E-03     42.9675E-03
            3183            3178     45.8986E-03     42.9675E-03
            3165            3178     45.8986E-03     42.9675E-03
            3166            3179     49.4852E-03     46.4583E-03
            3184            3179     49.4852E-03     46.4583E-03
            3167            3179     49.4852E-03     46.4583E-03
            3183            3179     49.4852E-03     46.4583E-03
            3167            3180     53.2085E-03     50.0876E-03
            3168            3180     53.2085E-03     50.0876E-03
            3185            3180     53.2085E-03     50.0876E-03
            3184            3180     53.2085E-03     50.0876E-03
            3169            3181     56.8925E-03     53.7075E-03
            3185            3181     56.8925E-03     53.7075E-03
            3186            3181     56.8925E-03     53.7075E-03
            3168            3181     56.8925E-03     53.7075E-03
            3170            3182     60.3654E-03     57.1105E-03
            3186            3182     60.3654E-03     57.1105E-03
            3187            3182     60.3654E-03     57.1105E-03
            3169            3182     60.3654E-03     57.1105E-03
            3187            3183     62.5475E-03     59.4243E-03
            3188            3183     62.5475E-03     59.4243E-03
            3171            3183     62.5475E-03     59.4243E-03
            3170            3183     62.5475E-03     59.4243E-03
            3188            3184     61.8121E-03     59.2745E-03
            3172            3184     61.8121E-03     59.2745E-03
            3171            3184     61.8121E-03     59.2745E-03
            3189            3184     61.8121E-03     59.2745E-03
            3172            3185     54.6911E-03     53.5942E-03
            3173            3185     54.6911E-03     53.5942E-03
            3190            3185     54.6911E-03     53.5942E-03
            3189            3185     54.6911E-03     53.5942E-03
            3174            3186     56.0456E-03     55.0578E-03
            3190            3186     56.0456E-03     55.0578E-03
            3173            3186     56.0456E-03     55.0578E-03
            3191            3186     56.0456E-03     55.0578E-03
            3192            3187     30.4189E-03     33.6530E-03
            3176            3187     30.4189E-03     33.6530E-03
            3193            3187     30.4189E-03     33.6530E-03
            3175            3187     30.4189E-03     33.6530E-03
            3193            3188     31.5753E-03     31.0910E-03
            3176            3188     31.5753E-03     31.0910E-03
            3194            3188     31.5753E-03     31.0910E-03
            3177            3188     31.5753E-03     31.0910E-03
            3178            3189     33.9353E-03     31.2049E-03
            3195            3189     33.9353E-03     31.2049E-03
            3177            3189     33.9353E-03     31.2049E-03
            3194            3189     33.9353E-03     31.2049E-03
            3178            3190     36.3002E-03     32.5385E-03
            3179            3190     36.3002E-03     32.5385E-03
            3196            3190     36.3002E-03     32.5385E-03
            3195            3190     36.3002E-03     32.5385E-03
            3196            3191     38.9043E-03     34.5085E-03
            3180            3191     38.9043E-03     34.5085E-03
            3197            3191     38.9043E-03     34.5085E-03
            3179            3191     38.9043E-03     34.5085E-03
            3181            3192     41.7182E-03     36.8751E-03
            3198            3192     41.7182E-03     36.8751E-03
            3197            3192     41.7182E-03     36.8751E-03
            3180            3192     41.7182E-03     36.8751E-03
            3181            3193     44.6965E-03     39.5064E-03
            3198            3193     44.6965E-03     39.5064E-03
            3182            3193     44.6965E-03     39.5064E-03
            3199            3193     44.6965E-03     39.5064E-03
            3182            3194     47.7900E-03     42.3164E-03
            3200            3194     47.7900E-03     42.3164E-03
            3183            3194     47.7900E-03     42.3164E-03
            3199            3194     47.7900E-03     42.3164E-03
            3184            3195     50.9281E-03     45.1919E-03
            3200            3195     50.9281E-03     45.1919E-03
            3183            3195     50.9281E-03     45.1919E-03
            3201            3195     50.9281E-03     45.1919E-03
            3202            3196     53.9914E-03     48.0388E-03
            3201            3196     53.9914E-03     48.0388E-03
            3184            3196     53.9914E-03     48.0388E-03
            3185            3196     53.9914E-03     48.0388E-03
            3202            3197     56.8064E-03     50.5806E-03
            3185            3197     56.8064E-03     50.5806E-03
            3186            3197     56.8064E-03     50.5806E-03
            3203            3197     56.8064E-03     50.5806E-03
            3203            3198     58.9752E-03     52.5055E-03
            3187            3198     58.9752E-03     52.5055E-03
            3204            3198     58.9752E-03     52.5055E-03
            3186            3198     58.9752E-03     52.5055E-03
            3204            3199     59.5588E-03     52.8279E-03
            3187            3199     59.5588E-03     52.8279E-03
            3205            3199     59.5588E-03     52.8279E-03
            3188            3199     59.5588E-03     52.8279E-03
            3188            3200     57.5784E-03     50.4895E-03
            3189            3200     57.5784E-03     50.4895E-03
            3205            3200     57.5784E-03     50.4895E-03
            3206            3200     57.5784E-03     50.4895E-03
            3190            3201     49.0579E-03     42.7803E-03
            3207            3201     49.0579E-03     42.7803E-03
            3189            3201     49.0579E-03     42.7803E-03
            3206            3201     49.0579E-03     42.7803E-03
            3207            3202     44.7676E-03     43.5960E-03
            3208            3202     44.7676E-03     43.5960E-03
            3190            3202     44.7676E-03     43.5960E-03
            3191            3202     44.7676E-03     43.5960E-03
            3209            3203     19.0459E-03     21.4579E-03
            3193            3203     19.0459E-03     21.4579E-03
            3210            3203     19.0459E-03     21.4579E-03
            3192            3203     19.0459E-03     21.4579E-03
            3194            3204     20.6480E-03     20.0070E-03
            3193            3204     20.6480E-03     20.0070E-03
            3210            3204     20.6480E-03     20.0070E-03
            3211            3204     20.6480E-03     20.0070E-03
            3194            3205     21.7236E-03     20.0722E-03
            3212            3205     21.7236E-03     20.0722E-03
            3211            3205     21.7236E-03     20.0722E-03
            3195            3205     21.7236E-03     20.0722E-03
            3213            3206     22.8826E-03     20.7740E-03
            3212            3206     22.8826E-03     20.7740E-03
            3196            3206     22.8826E-03     20.7740E-03
            3195            3206     22.8826E-03     20.7740E-03
            3196            3207     24.1870E-03     21.6763E-03
            3197            3207     24.1870E-03     21.6763E-03
            3213            3207     24.1870E-03     21.6763E-03
            3214            3207     24.1870E-03     21.6763E-03
            3197            3208     25.6176E-03     22.8437E-03
            3215            3208     25.6176E-03     22.8437E-03
            3214            3208     25.6176E-03     22.8437E-03
            3198            3208     25.6176E-03     22.8437E-03
            3199            3209     27.1251E-03     24.1076E-03
            3215            3209     27.1251E-03     24.1076E-03
            3198            3209     27.1251E-03     24.1076E-03
            3216            3209     27.1251E-03     24.1076E-03
            3217            3210     28.6785E-03     25.4856E-03
            3199            3210     28.6785E-03     25.4856E-03
            3200            3210     28.6785E-03     25.4856E-03
            3216            3210     28.6785E-03     25.4856E-03
            3218            3211     30.2249E-03     26.8515E-03
            3201            3211     30.2249E-03     26.8515E-03
            3217            3211     30.2249E-03     26.8515E-03
            3200            3211     30.2249E-03     26.8515E-03
            3201            3212     31.6787E-03     28.1527E-03
            3218            3212     31.6787E-03     28.1527E-03
            3202            3212     31.6787E-03     28.1527E-03
            3219            3212     31.6787E-03     28.1527E-03
            3219            3213     32.9463E-03     29.2487E-03
            3203            3213     32.9463E-03     29.2487E-03
            3202            3213     32.9463E-03     29.2487E-03
            3220            3213     32.9463E-03     29.2487E-03
            3204            3214     33.7128E-03     29.8190E-03
            3220            3214     33.7128E-03     29.8190E-03
            3203            3214     33.7128E-03     29.8190E-03
            3221            3214     33.7128E-03     29.8190E-03
            3204            3215     33.8236E-03     29.6545E-03
            3221            3215     33.8236E-03     29.6545E-03
            3205            3215     33.8236E-03     29.6545E-03
            3222            3215     33.8236E-03     29.6545E-03
            3223            3216     32.3490E-03     27.8370E-03
            3222            3216     32.3490E-03     27.8370E-03
            3205            3216     32.3490E-03     27.8370E-03
            3206            3216     32.3490E-03     27.8370E-03
            3224            3217     28.9707E-03     24.2505E-03
            3207            3217     28.9707E-03     24.2505E-03
            3223            3217     28.9707E-03     24.2505E-03
            3206            3217     28.9707E-03     24.2505E-03
            3224            3218     26.2379E-03     25.7152E-03
            3208            3218     26.2379E-03     25.7152E-03
            3207            3218     26.2379E-03     25.7152E-03
            3225            3218     26.2379E-03     25.7152E-03
            3231            3219     486.465E-06     473.095E-06
            3232            3219     486.465E-06     473.095E-06
            3226            3219     486.465E-06     473.095E-06
            3227            3219     486.465E-06     473.095E-06
            3228            3220     444.847E-06     431.728E-06
            3227            3220     444.847E-06     431.728E-06
            3232            3220     444.847E-06     431.728E-06
            3233            3220     444.847E-06     431.728E-06
            3233            3221     401.531E-06     401.068E-06
            3229            3221     401.531E-06     401.068E-06
            3234            3221     401.531E-06     401.068E-06
            3228            3221     401.531E-06     401.068E-06
            3229            3222     459.171E-06     468.363E-06
            3234            3222     459.171E-06     468.363E-06
            3235            3222     459.171E-06     468.363E-06
            3230            3222     459.171E-06     468.363E-06
            3237            3223     478.674E-06     471.422E-06
            3232            3223     478.674E-06     471.422E-06
            3231            3223     478.674E-06     471.422E-06
            3236            3223     478.674E-06     471.422E-06
            3237            3224     421.590E-06     403.672E-06
            3238            3224     421.590E-06     403.672E-06
            3232            3224     421.590E-06     403.672E-06
            3233            3224     421.590E-06     403.672E-06
            3233            3225     347.327E-06     316.431E-06
            3239            3225     347.327E-06     316.431E-06
            3234            3225     347.327E-06     316.431E-06
            3238            3225     347.327E-06     316.431E-06
            3239            3226     334.627E-06     305.616E-06
            3240            3226     334.627E-06     305.616E-06
            3234            3226     334.627E-06     305.616E-06
            3235            3226     334.627E-06     305.616E-06
            3236            3227     465.395E-06     463.288E-06
            3241            3227     465.395E-06     463.288E-06
            3237            3227     465.395E-06     463.288E-06
            3242            3227     465.395E-06     463.288E-06
            3237            3228     377.823E-06     388.704E-06
            3242            3228     377.823E-06     388.704E-06
            3238            3228     377.823E-06     388.704E-06
            3243            3228     377.823E-06     388.704E-06
            3238            3229     246.084E-06     268.708E-06
            3239            3229     246.084E-06     268.708E-06
            3244            3229     246.084E-06     268.708E-06
            3243            3229     246.084E-06     268.708E-06
            3240            3230     178.922E-06     205.835E-06
            3244            3230     178.922E-06     205.835E-06
            3239            3230     178.922E-06     205.835E-06
            3245            3230     178.922E-06     205.835E-06
            3242            3231     466.987E-06     456.316E-06
            3246            3231     466.987E-06     456.316E-06
            3241            3231     466.987E-06     456.316E-06
            3247            3231     466.987E-06     456.316E-06
            3248            3232     370.647E-06     367.118E-06
            3247            3232     370.647E-06     367.118E-06
            3243            3232     370.647E-06     367.118E-06
            3242            3232     370.647E-06     367.118E-06
            3248            3233     227.318E-06     233.534E-06
            3244            3233     227.318E-06     233.534E-06
            3243            3233     227.318E-06     233.534E-06
            3249            3233     227.318E-06     233.534E-06
            3250            3234     154.020E-06     176.672E-06
            3245            3234     154.020E-06     176.672E-06
            3249            3234     154.020E-06     176.672E-06
            3244            3234     154.020E-06     176.672E-06


  Minimum                            107.875E-06     151.031E-06
      At Element                            2439            2439
            Node                             183             183

  Maximum                            292.291E-03     286.850E-03
      At Element                            2820            2820
            Node                             396             396

           Total                         729.123         747.771


Field Output reported at element nodes for region: F100-1.Region_2
   Computation algorithm: EXTRAPOLATE_COMPUTE_AVERAGE
   Averaged at nodes
   Averaging regions: ODB_REGIONS

   Element Label      Node Label         S.Mises         S.Mises
                                          @Loc 1          @Loc 2
-----------------------------------------------------------------
            2133               2     16.9761E-03     16.9097E-03
             881               2     16.9761E-03     16.9097E-03
            1018               3     178.545E-03     169.510E-03
            2235               3     178.545E-03     169.510E-03
            1003               5     16.9718E-03     17.0180E-03
             896               5     16.9718E-03     17.0180E-03
            1015               6     466.511E-06     472.182E-06
             893               9     466.511E-06     472.182E-06
             998              11     162.363E-03     165.469E-03
            2326              11     162.363E-03     165.469E-03
             883              13     21.1205E-03     21.1248E-03
             898              13     21.1205E-03     21.1248E-03
            2131              13     21.1205E-03     21.1248E-03
            1001              13     21.1205E-03     21.1248E-03
             895              14     631.641E-06     631.495E-06
            1013              14     631.641E-06     631.495E-06
            1000              15     58.9736E-03     57.1044E-03
            1016              15     58.9736E-03     57.1044E-03
            2328              15     58.9736E-03     57.1044E-03
            2233              15     58.9736E-03     57.1044E-03
            1030              16     215.325E-03     208.391E-03
            2903              16     215.325E-03     208.391E-03
            2340              17     62.9590E-03     63.1708E-03
            1028              17     62.9590E-03     63.1708E-03
            2238              17     62.9590E-03     63.1708E-03
            2901              17     62.9590E-03     63.1708E-03
            2338              20     223.619E-03     206.342E-03
            2236              20     223.619E-03     206.342E-03
            2343              21     158.182E-03     154.050E-03
            2915              21     158.182E-03     154.050E-03
            2248              23     163.622E-03     159.373E-03
            2941              23     163.622E-03     159.373E-03
            2250              25     129.276E-03     127.879E-03
            2913              25     129.276E-03     127.879E-03
            2943              25     129.276E-03     127.879E-03
            2341              25     129.276E-03     127.879E-03
            2968              26     31.7321E-03     31.5007E-03
            2821              26     31.7321E-03     31.5007E-03
            2888              28     31.7145E-03     31.4833E-03
            2370              28     31.7145E-03     31.4833E-03
            2368              29     31.4929E-03     31.2743E-03
            2886              29     31.4929E-03     31.2743E-03
            2970              29     31.4929E-03     31.2743E-03
            2823              29     31.4929E-03     31.2743E-03
            2900              31     466.156E-06     472.495E-06
            2835              33     630.840E-06     630.285E-06
            2898              33     630.840E-06     630.285E-06
            2833              34     466.156E-06     472.495E-06
            2133              52     35.0740E-03     34.7698E-03
            2136              52     35.0740E-03     34.7698E-03
            2139              53     33.8503E-03     33.7116E-03
            2136              53     33.8503E-03     33.7116E-03
            2139              54     31.1426E-03     31.9371E-03
            2142              54     31.1426E-03     31.9371E-03
            2145              55     33.9830E-03     34.7521E-03
            2142              55     33.9830E-03     34.7521E-03
            2148              56     39.6379E-03     39.5495E-03
            2145              56     39.6379E-03     39.5495E-03
            2148              57     47.5741E-03     47.4616E-03
            2151              57     47.5741E-03     47.4616E-03
            2151              58     58.9500E-03     57.5284E-03
            2154              58     58.9500E-03     57.5284E-03
            2157              59     52.8351E-03     49.9582E-03
            2154              59     52.8351E-03     49.9582E-03
            2160              60     45.8917E-03     45.9718E-03
            2157              60     45.8917E-03     45.9718E-03
            2160              61     56.1446E-03     57.5234E-03
            2163              61     56.1446E-03     57.5234E-03
            2166              62     65.2301E-03     65.0121E-03
            2163              62     65.2301E-03     65.0121E-03
            2166              63     73.8381E-03     73.1141E-03
            2169              63     73.8381E-03     73.1141E-03
            2169              64     83.5921E-03     83.3319E-03
            2172              64     83.5921E-03     83.3319E-03
            2172              65     96.2297E-03     93.4401E-03
            2175              65     96.2297E-03     93.4401E-03
            2175              66     87.5000E-03     81.2746E-03
            2178              66     87.5000E-03     81.2746E-03
            2181              67     79.8713E-03     78.6092E-03
            2178              67     79.8713E-03     78.6092E-03
            2181              68     93.2658E-03     95.0356E-03
            2184              68     93.2658E-03     95.0356E-03
            2187              69     103.295E-03     102.798E-03
            2184              69     103.295E-03     102.798E-03
            2190              70     114.184E-03     114.517E-03
            2187              70     114.184E-03     114.517E-03
            2193              71     127.472E-03     123.662E-03
            2190              71     127.472E-03     123.662E-03
            2193              72     118.469E-03     108.713E-03
            2196              72     118.469E-03     108.713E-03
            2196              73     110.525E-03     107.888E-03
            2199              73     110.525E-03     107.888E-03
            2199              74     124.618E-03     126.469E-03
            2202              74     124.618E-03     126.469E-03
            2205              75     135.482E-03     134.623E-03
            2202              75     135.482E-03     134.623E-03
            2208              76     145.250E-03     143.847E-03
            2205              76     145.250E-03     143.847E-03
            2208              77     156.124E-03     156.121E-03
            2211              77     156.124E-03     156.121E-03
            2214              78     169.450E-03     164.205E-03
            2211              78     169.450E-03     164.205E-03
            2217              79     158.971E-03     146.088E-03
            2214              79     158.971E-03     146.088E-03
            2220              80     150.881E-03     147.277E-03
            2217              80     150.881E-03     147.277E-03
            2223              81     166.345E-03     168.894E-03
            2220              81     166.345E-03     168.894E-03
            2223              82     177.126E-03     176.203E-03
            2226              82     177.126E-03     176.203E-03
            2229              83     189.044E-03     190.045E-03
            2226              83     189.044E-03     190.045E-03
            2232              84     202.805E-03     196.654E-03
            2229              84     202.805E-03     196.654E-03
            2232              85     194.886E-03     186.978E-03
            2235              85     194.886E-03     186.978E-03
            1003             152     609.836E-06     602.766E-06
            1006             152     609.836E-06     602.766E-06
            1006             153     482.374E-06     490.127E-06
            1009             153     482.374E-06     490.127E-06
            1009             154     429.279E-06     439.249E-06
            1012             154     429.279E-06     439.249E-06
            1015             155     449.810E-06     458.092E-06
            1012             155     449.810E-06     458.092E-06
             884             180     609.836E-06     602.766E-06
             881             180     609.836E-06     602.766E-06
             884             181     482.374E-06     490.127E-06
             887             181     482.374E-06     490.127E-06
             890             182     429.279E-06     439.249E-06
             887             182     429.279E-06     439.249E-06
             893             183     449.810E-06     458.092E-06
             890             183     449.810E-06     458.092E-06
             899             196     34.6983E-03     34.9921E-03
             896             196     34.6983E-03     34.9921E-03
             902             197     34.0507E-03     34.2079E-03
             899             197     34.0507E-03     34.2079E-03
             902             198     31.3140E-03     32.1773E-03
             905             198     31.3140E-03     32.1773E-03
             905             199     32.9241E-03     33.9611E-03
             908             199     32.9241E-03     33.9611E-03
             908             200     37.8876E-03     38.1822E-03
             911             200     37.8876E-03     38.1822E-03
             914             201     45.3985E-03     45.4951E-03
             911             201     45.3985E-03     45.4951E-03
             914             202     56.2135E-03     55.3319E-03
             917             202     56.2135E-03     55.3319E-03
             917             203     50.1913E-03     47.4606E-03
             920             203     50.1913E-03     47.4606E-03
             920             204     42.6242E-03     42.4657E-03
             923             204     42.6242E-03     42.4657E-03
             923             205     51.4219E-03     53.1607E-03
             926             205     51.4219E-03     53.1607E-03
             929             206     60.1039E-03     60.0274E-03
             926             206     60.1039E-03     60.0274E-03
             929             207     68.2343E-03     67.8891E-03
             932             207     68.2343E-03     67.8891E-03
             932             208     77.7427E-03     77.5574E-03
             935             208     77.7427E-03     77.5574E-03
             938             209     89.7080E-03     87.6407E-03
             935             209     89.7080E-03     87.6407E-03
             938             210     80.5515E-03     74.4992E-03
             941             210     80.5515E-03     74.4992E-03
             941             211     72.0411E-03     70.4965E-03
             944             211     72.0411E-03     70.4965E-03
             944             212     84.5294E-03     86.6406E-03
             947             212     84.5294E-03     86.6406E-03
             950             213     94.3493E-03     94.1426E-03
             947             213     94.3493E-03     94.1426E-03
             953             214     104.848E-03     105.337E-03
             950             214     104.848E-03     105.337E-03
             953             215     117.436E-03     114.430E-03
             956             215     117.436E-03     114.430E-03
             956             216     107.740E-03     98.3583E-03
             959             216     107.740E-03     98.3583E-03
             959             217     99.0017E-03     96.0759E-03
             962             217     99.0017E-03     96.0759E-03
             962             218     112.382E-03     114.669E-03
             965             218     112.382E-03     114.669E-03
             965             219     123.114E-03     122.434E-03
             968             219     123.114E-03     122.434E-03
             968             220     132.496E-03     131.546E-03
             971             220     132.496E-03     131.546E-03
             974             221     143.192E-03     143.280E-03
             971             221     143.192E-03     143.280E-03
             974             222     155.690E-03     151.398E-03
             977             222     155.690E-03     151.398E-03
             977             223     144.480E-03     132.120E-03
             980             223     144.480E-03     132.120E-03
             980             224     135.531E-03     131.789E-03
             983             224     135.531E-03     131.789E-03
             983             225     150.478E-03     153.425E-03
             986             225     150.478E-03     153.425E-03
             986             226     161.225E-03     160.655E-03
             989             226     161.225E-03     160.655E-03
             989             227     172.691E-03     173.894E-03
             992             227     172.691E-03     173.894E-03
             995             228     185.597E-03     180.467E-03
             992             228     185.597E-03     180.467E-03
             995             229     177.739E-03     171.266E-03
             998             229     177.739E-03     171.266E-03
             882             268     19.7390E-03     19.7522E-03
            2133             268     19.7390E-03     19.7522E-03
             881             268     19.7390E-03     19.7522E-03
            2132             268     19.7390E-03     19.7522E-03
             883             269     21.8119E-03     21.8591E-03
            2132             269     21.8119E-03     21.8591E-03
             882             269     21.8119E-03     21.8591E-03
            2131             269     21.8119E-03     21.8591E-03
            1004             270     631.581E-06     642.020E-06
            1001             270     631.581E-06     642.020E-06
             886             270     631.581E-06     642.020E-06
             883             270     631.581E-06     642.020E-06
            1004             271     676.002E-06     690.805E-06
            1007             271     676.002E-06     690.805E-06
             886             271     676.002E-06     690.805E-06
             889             271     676.002E-06     690.805E-06
             889             272     679.842E-06     688.558E-06
            1010             272     679.842E-06     688.558E-06
            1007             272     679.842E-06     688.558E-06
             892             272     679.842E-06     688.558E-06
            1010             273     648.954E-06     650.398E-06
            1013             273     648.954E-06     650.398E-06
             892             273     648.954E-06     650.398E-06
             895             273     648.954E-06     650.398E-06
             895             274     619.529E-06     620.757E-06
             894             274     619.529E-06     620.757E-06
             893             275     536.965E-06     541.101E-06
             894             275     536.965E-06     541.101E-06
             896             276     19.7757E-03     19.7551E-03
            1003             276     19.7757E-03     19.7551E-03
            1002             276     19.7757E-03     19.7551E-03
             897             276     19.7757E-03     19.7551E-03
            1001             277     21.8493E-03     21.8091E-03
             898             277     21.8493E-03     21.8091E-03
             897             277     21.8493E-03     21.8091E-03
            1002             277     21.8493E-03     21.8091E-03
             901             278     41.1547E-03     41.1477E-03
            2131             278     41.1547E-03     41.1477E-03
             898             278     41.1547E-03     41.1477E-03
            2134             278     41.1547E-03     41.1477E-03
             904             279     43.1362E-03     42.8103E-03
            2137             279     43.1362E-03     42.8103E-03
             901             279     43.1362E-03     42.8103E-03
            2134             279     43.1362E-03     42.8103E-03
            2137             280     46.6420E-03     45.7535E-03
            2140             280     46.6420E-03     45.7535E-03
             907             280     46.6420E-03     45.7535E-03
             904             280     46.6420E-03     45.7535E-03
            2140             281     49.0547E-03     48.0811E-03
             907             281     49.0547E-03     48.0811E-03
             910             281     49.0547E-03     48.0811E-03
            2143             281     49.0547E-03     48.0811E-03
            2143             282     50.6596E-03     50.6564E-03
            2146             282     50.6596E-03     50.6564E-03
             913             282     50.6596E-03     50.6564E-03
             910             282     50.6596E-03     50.6564E-03
             913             283     49.0352E-03     50.1376E-03
            2146             283     49.0352E-03     50.1376E-03
             916             283     49.0352E-03     50.1376E-03
            2149             283     49.0352E-03     50.1376E-03
             919             284     44.5578E-03     45.5182E-03
            2152             284     44.5578E-03     45.5182E-03
            2149             284     44.5578E-03     45.5182E-03
             916             284     44.5578E-03     45.5182E-03
             919             285     45.6230E-03     45.0423E-03
            2152             285     45.6230E-03     45.0423E-03
            2155             285     45.6230E-03     45.0423E-03
             922             285     45.6230E-03     45.0423E-03
            2155             286     49.7721E-03     47.3632E-03
             922             286     49.7721E-03     47.3632E-03
             925             286     49.7721E-03     47.3632E-03
            2158             286     49.7721E-03     47.3632E-03
             925             287     51.1038E-03     48.5131E-03
             928             287     51.1038E-03     48.5131E-03
            2158             287     51.1038E-03     48.5131E-03
            2161             287     51.1038E-03     48.5131E-03
             928             288     52.6270E-03     51.5895E-03
             931             288     52.6270E-03     51.5895E-03
            2161             288     52.6270E-03     51.5895E-03
            2164             288     52.6270E-03     51.5895E-03
            2164             289     53.6598E-03     54.9583E-03
             934             289     53.6598E-03     54.9583E-03
            2167             289     53.6598E-03     54.9583E-03
             931             289     53.6598E-03     54.9583E-03
            2167             290     51.7269E-03     54.6791E-03
            2170             290     51.7269E-03     54.6791E-03
             934             290     51.7269E-03     54.6791E-03
             937             290     51.7269E-03     54.6791E-03
            2170             291     45.7321E-03     47.8841E-03
            2173             291     45.7321E-03     47.8841E-03
             937             291     45.7321E-03     47.8841E-03
             940             291     45.7321E-03     47.8841E-03
            2176             292     48.9601E-03     48.1656E-03
            2173             292     48.9601E-03     48.1656E-03
             943             292     48.9601E-03     48.1656E-03
             940             292     48.9601E-03     48.1656E-03
            2179             293     54.8848E-03     51.3864E-03
            2176             293     54.8848E-03     51.3864E-03
             943             293     54.8848E-03     51.3864E-03
             946             293     54.8848E-03     51.3864E-03
             949             294     54.9946E-03     51.8017E-03
            2182             294     54.9946E-03     51.8017E-03
             946             294     54.9946E-03     51.8017E-03
            2179             294     54.9946E-03     51.8017E-03
             952             295     56.8962E-03     57.6110E-03
            2182             295     56.8962E-03     57.6110E-03
             949             295     56.8962E-03     57.6110E-03
            2185             295     56.8962E-03     57.6110E-03
             955             296     54.9081E-03     58.8689E-03
            2185             296     54.9081E-03     58.8689E-03
             952             296     54.9081E-03     58.8689E-03
            2188             296     54.9081E-03     58.8689E-03
            2188             297     47.7227E-03     50.5711E-03
            2191             297     47.7227E-03     50.5711E-03
             955             297     47.7227E-03     50.5711E-03
             958             297     47.7227E-03     50.5711E-03
             958             298     51.9028E-03     50.5128E-03
            2194             298     51.9028E-03     50.5128E-03
            2191             298     51.9028E-03     50.5128E-03
             961             298     51.9028E-03     50.5128E-03
             964             299     59.1765E-03     53.8900E-03
            2197             299     59.1765E-03     53.8900E-03
             961             299     59.1765E-03     53.8900E-03
            2194             299     59.1765E-03     53.8900E-03
             964             300     58.3851E-03     53.3588E-03
             967             300     58.3851E-03     53.3588E-03
            2200             300     58.3851E-03     53.3588E-03
            2197             300     58.3851E-03     53.3588E-03
             970             301     59.8437E-03     58.2434E-03
            2203             301     59.8437E-03     58.2434E-03
            2200             301     59.8437E-03     58.2434E-03
             967             301     59.8437E-03     58.2434E-03
             970             302     61.8999E-03     64.9112E-03
             973             302     61.8999E-03     64.9112E-03
            2203             302     61.8999E-03     64.9112E-03
            2206             302     61.8999E-03     64.9112E-03
            2209             303     59.5996E-03     65.6730E-03
             973             303     59.5996E-03     65.6730E-03
             976             303     59.5996E-03     65.6730E-03
            2206             303     59.5996E-03     65.6730E-03
            2212             304     51.1190E-03     54.9284E-03
             976             304     51.1190E-03     54.9284E-03
            2209             304     51.1190E-03     54.9284E-03
             979             304     51.1190E-03     54.9284E-03
             979             305     57.3563E-03     55.5221E-03
            2215             305     57.3563E-03     55.5221E-03
            2212             305     57.3563E-03     55.5221E-03
             982             305     57.3563E-03     55.5221E-03
             985             306     65.7364E-03     59.6690E-03
            2215             306     65.7364E-03     59.6690E-03
            2218             306     65.7364E-03     59.6690E-03
             982             306     65.7364E-03     59.6690E-03
             985             307     63.9386E-03     59.1848E-03
             988             307     63.9386E-03     59.1848E-03
            2218             307     63.9386E-03     59.1848E-03
            2221             307     63.9386E-03     59.1848E-03
            2221             308     66.3383E-03     68.3536E-03
             988             308     66.3383E-03     68.3536E-03
             991             308     66.3383E-03     68.3536E-03
            2224             308     66.3383E-03     68.3536E-03
             994             309     63.7586E-03     70.4491E-03
             991             309     63.7586E-03     70.4491E-03
            2227             309     63.7586E-03     70.4491E-03
            2224             309     63.7586E-03     70.4491E-03
             997             310     54.3561E-03     58.3625E-03
            2230             310     54.3561E-03     58.3625E-03
            2227             310     54.3561E-03     58.3625E-03
             994             310     54.3561E-03     58.3625E-03
             997             311     45.6068E-03     46.0124E-03
            2230             311     45.6068E-03     46.0124E-03
            1000             311     45.6068E-03     46.0124E-03
            2233             311     45.6068E-03     46.0124E-03
            2328             312     79.1411E-03     79.3228E-03
            2327             312     79.1411E-03     79.3228E-03
            1000             312     79.1411E-03     79.3228E-03
             999             312     79.1411E-03     79.3228E-03
             999             313     133.130E-03     134.872E-03
             998             313     133.130E-03     134.872E-03
            2326             313     133.130E-03     134.872E-03
            2327             313     133.130E-03     134.872E-03
            1014             314     536.965E-06     541.101E-06
            1015             314     536.965E-06     541.101E-06
            1013             315     619.529E-06     620.757E-06
            1014             315     619.529E-06     620.757E-06
            1016             316     90.7103E-03     84.4174E-03
            2233             316     90.7103E-03     84.4174E-03
            1017             316     90.7103E-03     84.4174E-03
            2234             316     90.7103E-03     84.4174E-03
            2235             317     148.202E-03     139.254E-03
            2234             317     148.202E-03     139.254E-03
            1018             317     148.202E-03     139.254E-03
            1017             317     148.202E-03     139.254E-03
            1021             318     186.062E-03     181.180E-03
            1018             318     186.062E-03     181.180E-03
            1024             319     200.693E-03     204.507E-03
            1021             319     200.693E-03     204.507E-03
            1024             320     212.650E-03     216.006E-03
            1027             320     212.650E-03     216.006E-03
            1030             321     225.831E-03     222.529E-03
            1027             321     225.831E-03     222.529E-03
            1030             322     170.522E-03     166.085E-03
            1029             322     170.522E-03     166.085E-03
            2903             322     170.522E-03     166.085E-03
            2902             322     170.522E-03     166.085E-03
            1028             323     93.1913E-03     93.9220E-03
            1029             323     93.1913E-03     93.9220E-03
            2902             323     93.1913E-03     93.9220E-03
            2901             323     93.1913E-03     93.9220E-03
            1028             324     56.6371E-03     61.7217E-03
            2337             324     56.6371E-03     61.7217E-03
            1025             324     56.6371E-03     61.7217E-03
            2340             324     56.6371E-03     61.7217E-03
            2334             325     65.8463E-03     75.3005E-03
            1022             325     65.8463E-03     75.3005E-03
            2337             325     65.8463E-03     75.3005E-03
            1025             325     65.8463E-03     75.3005E-03
            2334             326     68.7276E-03     72.0278E-03
            1022             326     68.7276E-03     72.0278E-03
            2331             326     68.7276E-03     72.0278E-03
            1019             326     68.7276E-03     72.0278E-03
            1019             327     71.5731E-03     68.2866E-03
            2331             327     71.5731E-03     68.2866E-03
            2328             327     71.5731E-03     68.2866E-03
            1016             327     71.5731E-03     68.2866E-03
            2335             396     226.981E-03     215.514E-03
            2338             396     226.981E-03     215.514E-03
            2332             397     208.539E-03     213.452E-03
            2335             397     208.539E-03     213.452E-03
            2329             398     198.250E-03     198.768E-03
            2332             398     198.250E-03     198.768E-03
            2329             399     177.140E-03     181.483E-03
            2326             399     177.140E-03     181.483E-03
            2903             400     220.527E-03     215.798E-03
            2906             400     220.527E-03     215.798E-03
            2906             401     225.301E-03     222.008E-03
            2909             401     225.301E-03     222.008E-03
            2909             402     189.980E-03     195.381E-03
            2912             402     189.980E-03     195.381E-03
            2912             403     154.401E-03     153.564E-03
            2915             403     154.401E-03     153.564E-03
            2239             428     230.111E-03     223.796E-03
            2236             428     230.111E-03     223.796E-03
            2239             429     234.134E-03     229.715E-03
            2242             429     234.134E-03     229.715E-03
            2245             430     197.892E-03     202.829E-03
            2242             430     197.892E-03     202.829E-03
            2245             431     160.542E-03     160.279E-03
            2248             431     160.542E-03     160.279E-03
            2339             440     178.092E-03     164.485E-03
            2338             440     178.092E-03     164.485E-03
            2237             440     178.092E-03     164.485E-03
            2236             440     178.092E-03     164.485E-03
            2340             441     98.9102E-03     92.4525E-03
            2237             441     98.9102E-03     92.4525E-03
            2339             441     98.9102E-03     92.4525E-03
            2238             441     98.9102E-03     92.4525E-03
            2901             442     95.6176E-03     96.1608E-03
            2241             442     95.6176E-03     96.1608E-03
            2904             442     95.6176E-03     96.1608E-03
            2238             442     95.6176E-03     96.1608E-03
            2904             443     125.477E-03     127.454E-03
            2907             443     125.477E-03     127.454E-03
            2244             443     125.477E-03     127.454E-03
            2241             443     125.477E-03     127.454E-03
            2244             444     139.115E-03     140.048E-03
            2907             444     139.115E-03     140.048E-03
            2910             444     139.115E-03     140.048E-03
            2247             444     139.115E-03     140.048E-03
            2250             445     145.373E-03     143.701E-03
            2247             445     145.373E-03     143.701E-03
            2913             445     145.373E-03     143.701E-03
            2910             445     145.373E-03     143.701E-03
            2943             446     139.232E-03     136.443E-03
            2942             446     139.232E-03     136.443E-03
            2249             446     139.232E-03     136.443E-03
            2250             446     139.232E-03     136.443E-03
            2942             447     156.025E-03     151.922E-03
            2941             447     156.025E-03     151.922E-03
            2249             447     156.025E-03     151.922E-03
            2248             447     156.025E-03     151.922E-03
            2944             452     159.461E-03     159.238E-03
            2941             452     159.461E-03     159.238E-03
            2947             453     159.415E-03     156.578E-03
            2944             453     159.415E-03     156.578E-03
            2947             454     169.326E-03     165.753E-03
            2950             454     169.326E-03     165.753E-03
            2950             455     137.488E-03     136.961E-03
            2953             455     137.488E-03     136.961E-03
            2956             456     115.776E-03     115.068E-03
            2953             456     115.776E-03     115.068E-03
            2959             457     99.2843E-03     99.5882E-03
            2956             457     99.2843E-03     99.5882E-03
            2962             458     87.8722E-03     90.2672E-03
            2959             458     87.8722E-03     90.2672E-03
            2962             459     88.6153E-03     90.8419E-03
            2965             459     88.6153E-03     90.8419E-03
            2968             460     77.0865E-03     77.3090E-03
            2965             460     77.0865E-03     77.3090E-03
            2914             474     136.865E-03     134.448E-03
            2342             474     136.865E-03     134.448E-03
            2341             474     136.865E-03     134.448E-03
            2913             474     136.865E-03     134.448E-03
            2915             475     151.698E-03     147.802E-03
            2914             475     151.698E-03     147.802E-03
            2342             475     151.698E-03     147.802E-03
            2343             475     151.698E-03     147.802E-03
            2346             476     154.912E-03     154.839E-03
            2343             476     154.912E-03     154.839E-03
            2346             477     156.117E-03     152.841E-03
            2349             477     156.117E-03     152.841E-03
            2352             478     165.861E-03     163.036E-03
            2349             478     165.861E-03     163.036E-03
            2355             479     134.799E-03     134.447E-03
            2352             479     134.799E-03     134.447E-03
            2355             480     113.556E-03     113.347E-03
            2358             480     113.556E-03     113.347E-03
            2361             481     97.8353E-03     98.4429E-03
            2358             481     97.8353E-03     98.4429E-03
            2364             482     87.3031E-03     90.0216E-03
            2361             482     87.3031E-03     90.0216E-03
            2364             483     89.4263E-03     91.7954E-03
            2367             483     89.4263E-03     91.7954E-03
            2370             484     77.8889E-03     78.1024E-03
            2367             484     77.8889E-03     78.1024E-03
            2887             485     31.6363E-03     31.4119E-03
            2370             485     31.6363E-03     31.4119E-03
            2369             485     31.6363E-03     31.4119E-03
            2888             485     31.6363E-03     31.4119E-03
            2368             486     31.5246E-03     31.3066E-03
            2886             486     31.5246E-03     31.3066E-03
            2369             486     31.5246E-03     31.3066E-03
            2887             486     31.5246E-03     31.3066E-03
            2365             487     94.3403E-03     93.2429E-03
            2970             487     94.3403E-03     93.2429E-03
            2368             487     94.3403E-03     93.2429E-03
            2967             487     94.3403E-03     93.2429E-03
            2964             488     130.421E-03     127.853E-03
            2967             488     130.421E-03     127.853E-03
            2362             488     130.421E-03     127.853E-03
            2365             488     130.421E-03     127.853E-03
            2362             489     137.891E-03     134.946E-03
            2964             489     137.891E-03     134.946E-03
            2359             489     137.891E-03     134.946E-03
            2961             489     137.891E-03     134.946E-03
            2359             490     142.358E-03     140.902E-03
            2961             490     142.358E-03     140.902E-03
            2356             490     142.358E-03     140.902E-03
            2958             490     142.358E-03     140.902E-03
            2353             491     143.538E-03     144.740E-03
            2955             491     143.538E-03     144.740E-03
            2958             491     143.538E-03     144.740E-03
            2356             491     143.538E-03     144.740E-03
            2952             492     138.620E-03     141.983E-03
            2350             492     138.620E-03     141.983E-03
            2353             492     138.620E-03     141.983E-03
            2955             492     138.620E-03     141.983E-03
            2952             493     125.848E-03     128.520E-03
            2949             493     125.848E-03     128.520E-03
            2347             493     125.848E-03     128.520E-03
            2350             493     125.848E-03     128.520E-03
            2949             494     126.706E-03     127.468E-03
            2946             494     126.706E-03     127.468E-03
            2344             494     126.706E-03     127.468E-03
            2347             494     126.706E-03     127.468E-03
            2943             495     123.592E-03     123.606E-03
            2341             495     123.592E-03     123.606E-03
            2946             495     123.592E-03     123.606E-03
            2344             495     123.592E-03     123.606E-03
            2888             569     622.881E-06     615.460E-06
            2891             569     622.881E-06     615.460E-06
            2894             570     487.580E-06     495.224E-06
            2891             570     487.580E-06     495.224E-06
            2897             571     429.209E-06     439.460E-06
            2894             571     429.209E-06     439.460E-06
            2897             572     448.434E-06     457.554E-06
            2900             572     448.434E-06     457.554E-06
            2968             593     31.6504E-03     31.4259E-03
            2821             593     31.6504E-03     31.4259E-03
            2822             593     31.6504E-03     31.4259E-03
            2969             593     31.6504E-03     31.4259E-03
            2823             594     31.5316E-03     31.3136E-03
            2969             594     31.5316E-03     31.3136E-03
            2970             594     31.5316E-03     31.3136E-03
            2822             594     31.5316E-03     31.3136E-03
            2889             595     633.346E-06     644.873E-06
            2823             595     633.346E-06     644.873E-06
            2826             595     633.346E-06     644.873E-06
            2886             595     633.346E-06     644.873E-06
            2826             596     681.943E-06     697.181E-06
            2889             596     681.943E-06     697.181E-06
            2892             596     681.943E-06     697.181E-06
            2829             596     681.943E-06     697.181E-06
            2895             597     685.046E-06     692.850E-06
            2892             597     685.046E-06     692.850E-06
            2832             597     685.046E-06     692.850E-06
            2829             597     685.046E-06     692.850E-06
            2835             598     650.120E-06     650.688E-06
            2895             598     650.120E-06     650.688E-06
            2898             598     650.120E-06     650.688E-06
            2832             598     650.120E-06     650.688E-06
            2834             599     618.942E-06     619.648E-06
            2835             599     618.942E-06     619.648E-06
            2834             600     536.600E-06     540.753E-06
            2833             600     536.600E-06     540.753E-06
            2830             601     448.434E-06     457.554E-06
            2833             601     448.434E-06     457.554E-06
            2827             602     429.209E-06     439.460E-06
            2830             602     429.209E-06     439.460E-06
            2827             603     487.580E-06     495.224E-06
            2824             603     487.580E-06     495.224E-06
            2824             604     622.881E-06     615.460E-06
            2821             604     622.881E-06     615.460E-06
            2899             609     536.600E-06     540.753E-06
            2900             609     536.600E-06     540.753E-06
            2898             610     618.942E-06     619.648E-06
            2899             610     618.942E-06     619.648E-06
             885            1399     621.752E-06     624.494E-06
             884            1399     621.752E-06     624.494E-06
             881            1399     621.752E-06     624.494E-06
             882            1399     621.752E-06     624.494E-06
             882            1400     632.625E-06     644.121E-06
             885            1400     632.625E-06     644.121E-06
             883            1400     632.625E-06     644.121E-06
             886            1400     632.625E-06     644.121E-06
             885            1401     560.012E-06     568.718E-06
             884            1401     560.012E-06     568.718E-06
             887            1401     560.012E-06     568.718E-06
             888            1401     560.012E-06     568.718E-06
             885            1402     656.826E-06     669.057E-06
             889            1402     656.826E-06     669.057E-06
             886            1402     656.826E-06     669.057E-06
             888            1402     656.826E-06     669.057E-06
             887            1403     527.541E-06     534.729E-06
             890            1403     527.541E-06     534.729E-06
             888            1403     527.541E-06     534.729E-06
             891            1403     527.541E-06     534.729E-06
             889            1404     652.822E-06     659.384E-06
             888            1404     652.822E-06     659.384E-06
             892            1404     652.822E-06     659.384E-06
             891            1404     652.822E-06     659.384E-06
             890            1405     533.366E-06     539.813E-06
             893            1405     533.366E-06     539.813E-06
             891            1405     533.366E-06     539.813E-06
             894            1405     533.366E-06     539.813E-06
             891            1406     632.938E-06     635.966E-06
             895            1406     632.938E-06     635.966E-06
             894            1406     632.938E-06     635.966E-06
             892            1406     632.938E-06     635.966E-06
             900            1407     39.3834E-03     39.4853E-03
             897            1407     39.3834E-03     39.4853E-03
             899            1407     39.3834E-03     39.4853E-03
             896            1407     39.3834E-03     39.4853E-03
             897            1408     42.5980E-03     42.5699E-03
             900            1408     42.5980E-03     42.5699E-03
             901            1408     42.5980E-03     42.5699E-03
             898            1408     42.5980E-03     42.5699E-03
             903            1409     38.8040E-03     38.6263E-03
             900            1409     38.8040E-03     38.6263E-03
             902            1409     38.8040E-03     38.6263E-03
             899            1409     38.8040E-03     38.6263E-03
             900            1410     43.3312E-03     42.9415E-03
             903            1410     43.3312E-03     42.9415E-03
             901            1410     43.3312E-03     42.9415E-03
             904            1410     43.3312E-03     42.9415E-03
             902            1411     37.9817E-03     37.8778E-03
             905            1411     37.9817E-03     37.8778E-03
             903            1411     37.9817E-03     37.8778E-03
             906            1411     37.9817E-03     37.8778E-03
             903            1412     45.6406E-03     44.6391E-03
             906            1412     45.6406E-03     44.6391E-03
             907            1412     45.6406E-03     44.6391E-03
             904            1412     45.6406E-03     44.6391E-03
             905            1413     38.9872E-03     39.4143E-03
             909            1413     38.9872E-03     39.4143E-03
             908            1413     38.9872E-03     39.4143E-03
             906            1413     38.9872E-03     39.4143E-03
             910            1414     47.0265E-03     46.4285E-03
             906            1414     47.0265E-03     46.4285E-03
             907            1414     47.0265E-03     46.4285E-03
             909            1414     47.0265E-03     46.4285E-03
             911            1415     41.5416E-03     41.8997E-03
             912            1415     41.5416E-03     41.8997E-03
             909            1415     41.5416E-03     41.8997E-03
             908            1415     41.5416E-03     41.8997E-03
             912            1416     47.8416E-03     48.0774E-03
             910            1416     47.8416E-03     48.0774E-03
             913            1416     47.8416E-03     48.0774E-03
             909            1416     47.8416E-03     48.0774E-03
             915            1417     46.8383E-03     47.1755E-03
             914            1417     46.8383E-03     47.1755E-03
             911            1417     46.8383E-03     47.1755E-03
             912            1417     46.8383E-03     47.1755E-03
             912            1418     48.5543E-03     49.3951E-03
             915            1418     48.5543E-03     49.3951E-03
             916            1418     48.5543E-03     49.3951E-03
             913            1418     48.5543E-03     49.3951E-03
             915            1419     52.2958E-03     52.2230E-03
             917            1419     52.2958E-03     52.2230E-03
             918            1419     52.2958E-03     52.2230E-03
             914            1419     52.2958E-03     52.2230E-03
             916            1420     46.3429E-03     47.2251E-03
             915            1420     46.3429E-03     47.2251E-03
             918            1420     46.3429E-03     47.2251E-03
             919            1420     46.3429E-03     47.2251E-03
             917            1421     49.1423E-03     46.9787E-03
             921            1421     49.1423E-03     46.9787E-03
             918            1421     49.1423E-03     46.9787E-03
             920            1421     49.1423E-03     46.9787E-03
             921            1422     46.7015E-03     45.6632E-03
             922            1422     46.7015E-03     45.6632E-03
             918            1422     46.7015E-03     45.6632E-03
             919            1422     46.7015E-03     45.6632E-03
             921            1423     46.4945E-03     45.0817E-03
             923            1423     46.4945E-03     45.0817E-03
             924            1423     46.4945E-03     45.0817E-03
             920            1423     46.4945E-03     45.0817E-03
             925            1424     49.8963E-03     47.3251E-03
             924            1424     49.8963E-03     47.3251E-03
             922            1424     49.8963E-03     47.3251E-03
             921            1424     49.8963E-03     47.3251E-03
             927            1425     51.4820E-03     52.2103E-03
             924            1425     51.4820E-03     52.2103E-03
             926            1425     51.4820E-03     52.2103E-03
             923            1425     51.4820E-03     52.2103E-03
             928            1426     51.0914E-03     49.5836E-03
             925            1426     51.0914E-03     49.5836E-03
             924            1426     51.0914E-03     49.5836E-03
             927            1426     51.0914E-03     49.5836E-03
             929            1427     56.7472E-03     57.1728E-03
             930            1427     56.7472E-03     57.1728E-03
             926            1427     56.7472E-03     57.1728E-03
             927            1427     56.7472E-03     57.1728E-03
             931            1428     52.6812E-03     52.6290E-03
             928            1428     52.6812E-03     52.6290E-03
             927            1428     52.6812E-03     52.6290E-03
             930            1428     52.6812E-03     52.6290E-03
             929            1429     62.3853E-03     62.5356E-03
             932            1429     62.3853E-03     62.5356E-03
             933            1429     62.3853E-03     62.5356E-03
             930            1429     62.3853E-03     62.5356E-03
             931            1430     54.6715E-03     55.6766E-03
             930            1430     54.6715E-03     55.6766E-03
             934            1430     54.6715E-03     55.6766E-03
             933            1430     54.6715E-03     55.6766E-03
             933            1431     69.6185E-03     70.3147E-03
             935            1431     69.6185E-03     70.3147E-03
             936            1431     69.6185E-03     70.3147E-03
             932            1431     69.6185E-03     70.3147E-03
             934            1432     56.1601E-03     58.4419E-03
             936            1432     56.1601E-03     58.4419E-03
             937            1432     56.1601E-03     58.4419E-03
             933            1432     56.1601E-03     58.4419E-03
             935            1433     75.4263E-03     74.8569E-03
             939            1433     75.4263E-03     74.8569E-03
             936            1433     75.4263E-03     74.8569E-03
             938            1433     75.4263E-03     74.8569E-03
             937            1434     52.9239E-03     54.5774E-03
             936            1434     52.9239E-03     54.5774E-03
             939            1434     52.9239E-03     54.5774E-03
             940            1434     52.9239E-03     54.5774E-03
             939            1435     70.2450E-03     65.4181E-03
             942            1435     70.2450E-03     65.4181E-03
             938            1435     70.2450E-03     65.4181E-03
             941            1435     70.2450E-03     65.4181E-03
             939            1436     53.9258E-03     51.8222E-03
             942            1436     53.9258E-03     51.8222E-03
             943            1436     53.9258E-03     51.8222E-03
             940            1436     53.9258E-03     51.8222E-03
             945            1437     67.8231E-03     65.1533E-03
             941            1437     67.8231E-03     65.1533E-03
             942            1437     67.8231E-03     65.1533E-03
             944            1437     67.8231E-03     65.1533E-03
             942            1438     58.7047E-03     54.9924E-03
             946            1438     58.7047E-03     54.9924E-03
             943            1438     58.7047E-03     54.9924E-03
             945            1438     58.7047E-03     54.9924E-03
             947            1439     75.1822E-03     76.7383E-03
             945            1439     75.1822E-03     76.7383E-03
             944            1439     75.1822E-03     76.7383E-03
             948            1439     75.1822E-03     76.7383E-03
             949            1440     59.7274E-03     58.5115E-03
             948            1440     59.7274E-03     58.5115E-03
             946            1440     59.7274E-03     58.5115E-03
             945            1440     59.7274E-03     58.5115E-03
             947            1441     81.5225E-03     82.5383E-03
             948            1441     81.5225E-03     82.5383E-03
             950            1441     81.5225E-03     82.5383E-03
             951            1441     81.5225E-03     82.5383E-03
             949            1442     61.9227E-03     63.3449E-03
             948            1442     61.9227E-03     63.3449E-03
             951            1442     61.9227E-03     63.3449E-03
             952            1442     61.9227E-03     63.3449E-03
             953            1443     89.5386E-03     91.1742E-03
             950            1443     89.5386E-03     91.1742E-03
             951            1443     89.5386E-03     91.1742E-03
             954            1443     89.5386E-03     91.1742E-03
             952            1444     63.6228E-03     67.0413E-03
             954            1444     63.6228E-03     67.0413E-03
             951            1444     63.6228E-03     67.0413E-03
             955            1444     63.6228E-03     67.0413E-03
             957            1445     95.4502E-03     94.4625E-03
             954            1445     95.4502E-03     94.4625E-03
             953            1445     95.4502E-03     94.4625E-03
             956            1445     95.4502E-03     94.4625E-03
             954            1446     59.5480E-03     61.6953E-03
             955            1446     59.5480E-03     61.6953E-03
             958            1446     59.5480E-03     61.6953E-03
             957            1446     59.5480E-03     61.6953E-03
             959            1447     89.9500E-03     82.2821E-03
             957            1447     89.9500E-03     82.2821E-03
             956            1447     89.9500E-03     82.2821E-03
             960            1447     89.9500E-03     82.2821E-03
             960            1448     61.0083E-03     57.5021E-03
             957            1448     61.0083E-03     57.5021E-03
             961            1448     61.0083E-03     57.5021E-03
             958            1448     61.0083E-03     57.5021E-03
             963            1449     87.6089E-03     83.4758E-03
             960            1449     87.6089E-03     83.4758E-03
             962            1449     87.6089E-03     83.4758E-03
             959            1449     87.6089E-03     83.4758E-03
             964            1450     66.7130E-03     61.3063E-03
             960            1450     66.7130E-03     61.3063E-03
             963            1450     66.7130E-03     61.3063E-03
             961            1450     66.7130E-03     61.3063E-03
             963            1451     95.7823E-03     97.4869E-03
             965            1451     95.7823E-03     97.4869E-03
             962            1451     95.7823E-03     97.4869E-03
             966            1451     95.7823E-03     97.4869E-03
             963            1452     67.5566E-03     65.3711E-03
             967            1452     67.5566E-03     65.3711E-03
             964            1452     67.5566E-03     65.3711E-03
             966            1452     67.5566E-03     65.3711E-03
             966            1453     103.065E-03     103.810E-03
             969            1453     103.065E-03     103.810E-03
             965            1453     103.065E-03     103.810E-03
             968            1453     103.065E-03     103.810E-03
             967            1454     70.0145E-03     70.1802E-03
             966            1454     70.0145E-03     70.1802E-03
             969            1454     70.0145E-03     70.1802E-03
             970            1454     70.0145E-03     70.1802E-03
             972            1455     110.107E-03     110.479E-03
             969            1455     110.107E-03     110.479E-03
             968            1455     110.107E-03     110.479E-03
             971            1455     110.107E-03     110.479E-03
             973            1456     73.2374E-03     75.6193E-03
             969            1456     73.2374E-03     75.6193E-03
             972            1456     73.2374E-03     75.6193E-03
             970            1456     73.2374E-03     75.6193E-03
             971            1457     118.699E-03     120.568E-03
             974            1457     118.699E-03     120.568E-03
             975            1457     118.699E-03     120.568E-03
             972            1457     118.699E-03     120.568E-03
             973            1458     75.2710E-03     80.2680E-03
             972            1458     75.2710E-03     80.2680E-03
             976            1458     75.2710E-03     80.2680E-03
             975            1458     75.2710E-03     80.2680E-03
             974            1459     124.190E-03     122.180E-03
             978            1459     124.190E-03     122.180E-03
             975            1459     124.190E-03     122.180E-03
             977            1459     124.190E-03     122.180E-03
             979            1460     70.1099E-03     72.4994E-03
             978            1460     70.1099E-03     72.4994E-03
             975            1460     70.1099E-03     72.4994E-03
             976            1460     70.1099E-03     72.4994E-03
             977            1461     117.080E-03     106.678E-03
             980            1461     117.080E-03     106.678E-03
             978            1461     117.080E-03     106.678E-03
             981            1461     117.080E-03     106.678E-03
             981            1462     71.8556E-03     66.9502E-03
             982            1462     71.8556E-03     66.9502E-03
             979            1462     71.8556E-03     66.9502E-03
             978            1462     71.8556E-03     66.9502E-03
             983            1463     115.376E-03     110.565E-03
             981            1463     115.376E-03     110.565E-03
             984            1463     115.376E-03     110.565E-03
             980            1463     115.376E-03     110.565E-03
             984            1464     78.9090E-03     72.7883E-03
             981            1464     78.9090E-03     72.7883E-03
             982            1464     78.9090E-03     72.7883E-03
             985            1464     78.9090E-03     72.7883E-03
             983            1465     124.918E-03     127.902E-03
             984            1465     124.918E-03     127.902E-03
             987            1465     124.918E-03     127.902E-03
             986            1465     124.918E-03     127.902E-03
             984            1466     79.7025E-03     78.5213E-03
             985            1466     79.7025E-03     78.5213E-03
             987            1466     79.7025E-03     78.5213E-03
             988            1466     79.7025E-03     78.5213E-03
             990            1467     132.190E-03     134.125E-03
             987            1467     132.190E-03     134.125E-03
             986            1467     132.190E-03     134.125E-03
             989            1467     132.190E-03     134.125E-03
             990            1468     82.4861E-03     85.5489E-03
             987            1468     82.4861E-03     85.5489E-03
             988            1468     82.4861E-03     85.5489E-03
             991            1468     82.4861E-03     85.5489E-03
             993            1469     141.285E-03     144.439E-03
             990            1469     141.285E-03     144.439E-03
             992            1469     141.285E-03     144.439E-03
             989            1469     141.285E-03     144.439E-03
             990            1470     84.4677E-03     90.5312E-03
             993            1470     84.4677E-03     90.5312E-03
             991            1470     84.4677E-03     90.5312E-03
             994            1470     84.4677E-03     90.5312E-03
             996            1471     146.656E-03     144.202E-03
             995            1471     146.656E-03     144.202E-03
             993            1471     146.656E-03     144.202E-03
             992            1471     146.656E-03     144.202E-03
             997            1472     78.4668E-03     81.0452E-03
             993            1472     78.4668E-03     81.0452E-03
             994            1472     78.4668E-03     81.0452E-03
             996            1472     78.4668E-03     81.0452E-03
             996            1473     138.538E-03     133.735E-03
             995            1473     138.538E-03     133.735E-03
             998            1473     138.538E-03     133.735E-03
             999            1473     138.538E-03     133.735E-03
             997            1474     69.3951E-03     68.3559E-03
             999            1474     69.3951E-03     68.3559E-03
            1000            1474     69.3951E-03     68.3559E-03
             996            1474     69.3951E-03     68.3559E-03
            1001            1475     632.625E-06     644.121E-06
            1005            1475     632.625E-06     644.121E-06
            1002            1475     632.625E-06     644.121E-06
            1004            1475     632.625E-06     644.121E-06
            1006            1476     621.752E-06     624.494E-06
            1002            1476     621.752E-06     624.494E-06
            1005            1476     621.752E-06     624.494E-06
            1003            1476     621.752E-06     624.494E-06
            1005            1477     656.826E-06     669.057E-06
            1008            1477     656.826E-06     669.057E-06
            1004            1477     656.826E-06     669.057E-06
            1007            1477     656.826E-06     669.057E-06
            1005            1478     560.012E-06     568.718E-06
            1009            1478     560.012E-06     568.718E-06
            1008            1478     560.012E-06     568.718E-06
            1006            1478     560.012E-06     568.718E-06
            1008            1479     652.822E-06     659.384E-06
            1011            1479     652.822E-06     659.384E-06
            1010            1479     652.822E-06     659.384E-06
            1007            1479     652.822E-06     659.384E-06
            1012            1480     527.541E-06     534.729E-06
            1008            1480     527.541E-06     534.729E-06
            1011            1480     527.541E-06     534.729E-06
            1009            1480     527.541E-06     534.729E-06
            1011            1481     632.938E-06     635.966E-06
            1014            1481     632.938E-06     635.966E-06
            1010            1481     632.938E-06     635.966E-06
            1013            1481     632.938E-06     635.966E-06
            1011            1482     533.366E-06     539.813E-06
            1014            1482     533.366E-06     539.813E-06
            1015            1482     533.366E-06     539.813E-06
            1012            1482     533.366E-06     539.813E-06
            1016            1483     100.142E-03     93.5046E-03
            1017            1483     100.142E-03     93.5046E-03
            1020            1483     100.142E-03     93.5046E-03
            1019            1483     100.142E-03     93.5046E-03
            1020            1484     156.166E-03     150.295E-03
            1017            1484     156.166E-03     150.295E-03
            1021            1484     156.166E-03     150.295E-03
            1018            1484     156.166E-03     150.295E-03
            1019            1485     101.002E-03     105.501E-03
            1022            1485     101.002E-03     105.501E-03
            1023            1485     101.002E-03     105.501E-03
            1020            1485     101.002E-03     105.501E-03
            1021            1486     166.026E-03     171.594E-03
            1020            1486     166.026E-03     171.594E-03
            1023            1486     166.026E-03     171.594E-03
            1024            1486     166.026E-03     171.594E-03
            1025            1487     101.380E-03     112.310E-03
            1022            1487     101.380E-03     112.310E-03
            1026            1487     101.380E-03     112.310E-03
            1023            1487     101.380E-03     112.310E-03
            1023            1488     174.494E-03     181.833E-03
            1024            1488     174.494E-03     181.833E-03
            1026            1488     174.494E-03     181.833E-03
            1027            1488     174.494E-03     181.833E-03
            1029            1489     93.6270E-03     100.463E-03
            1028            1489     93.6270E-03     100.463E-03
            1026            1489     93.6270E-03     100.463E-03
            1025            1489     93.6270E-03     100.463E-03
            1029            1490     178.841E-03     179.206E-03
            1030            1490     178.841E-03     179.206E-03
            1026            1490     178.841E-03     179.206E-03
            1027            1490     178.841E-03     179.206E-03
            2135            2411     42.5951E-03     42.6115E-03
            2134            2411     42.5951E-03     42.6115E-03
            2131            2411     42.5951E-03     42.6115E-03
            2132            2411     42.5951E-03     42.6115E-03
            2132            2412     39.5412E-03     39.4292E-03
            2133            2412     39.5412E-03     39.4292E-03
            2135            2412     39.5412E-03     39.4292E-03
            2136            2412     39.5412E-03     39.4292E-03
            2134            2413     43.2771E-03     42.9236E-03
            2138            2413     43.2771E-03     42.9236E-03
            2135            2413     43.2771E-03     42.9236E-03
            2137            2413     43.2771E-03     42.9236E-03
            2138            2414     38.6185E-03     38.3881E-03
            2136            2414     38.6185E-03     38.3881E-03
            2135            2414     38.6185E-03     38.3881E-03
            2139            2414     38.6185E-03     38.3881E-03
            2141            2415     45.5628E-03     44.7759E-03
            2137            2415     45.5628E-03     44.7759E-03
            2138            2415     45.5628E-03     44.7759E-03
            2140            2415     45.5628E-03     44.7759E-03
            2141            2416     37.8081E-03     37.8410E-03
            2138            2416     37.8081E-03     37.8410E-03
            2139            2416     37.8081E-03     37.8410E-03
            2142            2416     37.8081E-03     37.8410E-03
            2144            2417     47.3137E-03     46.7222E-03
            2141            2417     47.3137E-03     46.7222E-03
            2140            2417     47.3137E-03     46.7222E-03
            2143            2417     47.3137E-03     46.7222E-03
            2144            2418     39.7518E-03     40.0118E-03
            2141            2418     39.7518E-03     40.0118E-03
            2145            2418     39.7518E-03     40.0118E-03
            2142            2418     39.7518E-03     40.0118E-03
            2143            2419     48.5386E-03     48.5555E-03
            2144            2419     48.5386E-03     48.5555E-03
            2146            2419     48.5386E-03     48.5555E-03
            2147            2419     48.5386E-03     48.5555E-03
            2148            2420     42.9417E-03     42.9426E-03
            2145            2420     42.9417E-03     42.9426E-03
            2144            2420     42.9417E-03     42.9426E-03
            2147            2420     42.9417E-03     42.9426E-03
            2150            2421     49.4335E-03     50.1826E-03
            2146            2421     49.4335E-03     50.1826E-03
            2149            2421     49.4335E-03     50.1826E-03
            2147            2421     49.4335E-03     50.1826E-03
            2151            2422     48.6007E-03     48.7430E-03
            2148            2422     48.6007E-03     48.7430E-03
            2147            2422     48.6007E-03     48.7430E-03
            2150            2422     48.6007E-03     48.7430E-03
            2149            2423     47.4025E-03     48.0705E-03
            2150            2423     47.4025E-03     48.0705E-03
            2153            2423     47.4025E-03     48.0705E-03
            2152            2423     47.4025E-03     48.0705E-03
            2154            2424     54.4736E-03     53.9846E-03
            2153            2424     54.4736E-03     53.9846E-03
            2151            2424     54.4736E-03     53.9846E-03
            2150            2424     54.4736E-03     53.9846E-03
            2152            2425     47.7010E-03     46.5614E-03
            2153            2425     47.7010E-03     46.5614E-03
            2156            2425     47.7010E-03     46.5614E-03
            2155            2425     47.7010E-03     46.5614E-03
            2153            2426     51.1504E-03     48.9130E-03
            2154            2426     51.1504E-03     48.9130E-03
            2157            2426     51.1504E-03     48.9130E-03
            2156            2426     51.1504E-03     48.9130E-03
            2159            2427     51.0452E-03     48.8280E-03
            2155            2427     51.0452E-03     48.8280E-03
            2158            2427     51.0452E-03     48.8280E-03
            2156            2427     51.0452E-03     48.8280E-03
            2160            2428     48.9328E-03     47.9269E-03
            2157            2428     48.9328E-03     47.9269E-03
            2156            2428     48.9328E-03     47.9269E-03
            2159            2428     48.9328E-03     47.9269E-03
            2161            2429     52.9738E-03     51.7265E-03
            2162            2429     52.9738E-03     51.7265E-03
            2159            2429     52.9738E-03     51.7265E-03
            2158            2429     52.9738E-03     51.7265E-03
            2162            2430     55.2625E-03     55.9287E-03
            2160            2430     55.2625E-03     55.9287E-03
            2159            2430     55.2625E-03     55.9287E-03
            2163            2430     55.2625E-03     55.9287E-03
            2162            2431     55.2124E-03     55.0346E-03
            2164            2431     55.2124E-03     55.0346E-03
            2165            2431     55.2124E-03     55.0346E-03
            2161            2431     55.2124E-03     55.0346E-03
            2162            2432     61.1864E-03     61.4211E-03
            2165            2432     61.1864E-03     61.4211E-03
            2163            2432     61.1864E-03     61.4211E-03
            2166            2432     61.1864E-03     61.4211E-03
            2168            2433     57.6542E-03     58.4765E-03
            2167            2433     57.6542E-03     58.4765E-03
            2165            2433     57.6542E-03     58.4765E-03
            2164            2433     57.6542E-03     58.4765E-03
            2168            2434     67.3169E-03     67.1608E-03
            2169            2434     67.3169E-03     67.1608E-03
            2166            2434     67.3169E-03     67.1608E-03
            2165            2434     67.3169E-03     67.1608E-03
            2170            2435     59.3987E-03     61.5509E-03
            2167            2435     59.3987E-03     61.5509E-03
            2171            2435     59.3987E-03     61.5509E-03
            2168            2435     59.3987E-03     61.5509E-03
            2171            2436     74.8809E-03     75.4436E-03
            2169            2436     74.8809E-03     75.4436E-03
            2172            2436     74.8809E-03     75.4436E-03
            2168            2436     74.8809E-03     75.4436E-03
            2174            2437     56.4483E-03     57.5449E-03
            2173            2437     56.4483E-03     57.5449E-03
            2170            2437     56.4483E-03     57.5449E-03
            2171            2437     56.4483E-03     57.5449E-03
            2171            2438     81.1827E-03     79.9217E-03
            2175            2438     81.1827E-03     79.9217E-03
            2172            2438     81.1827E-03     79.9217E-03
            2174            2438     81.1827E-03     79.9217E-03
            2173            2439     57.2816E-03     54.8403E-03
            2174            2439     57.2816E-03     54.8403E-03
            2176            2439     57.2816E-03     54.8403E-03
            2177            2439     57.2816E-03     54.8403E-03
            2174            2440     76.0281E-03     70.9658E-03
            2178            2440     76.0281E-03     70.9658E-03
            2175            2440     76.0281E-03     70.9658E-03
            2177            2440     76.0281E-03     70.9658E-03
            2177            2441     62.3184E-03     59.1060E-03
            2176            2441     62.3184E-03     59.1060E-03
            2180            2441     62.3184E-03     59.1060E-03
            2179            2441     62.3184E-03     59.1060E-03
            2181            2442     74.2714E-03     72.1115E-03
            2178            2442     74.2714E-03     72.1115E-03
            2177            2442     74.2714E-03     72.1115E-03
            2180            2442     74.2714E-03     72.1115E-03
            2183            2443     64.5174E-03     63.6825E-03
            2182            2443     64.5174E-03     63.6825E-03
            2180            2443     64.5174E-03     63.6825E-03
            2179            2443     64.5174E-03     63.6825E-03
            2181            2444     82.9655E-03     84.4921E-03
            2180            2444     82.9655E-03     84.4921E-03
            2184            2444     82.9655E-03     84.4921E-03
            2183            2444     82.9655E-03     84.4921E-03
            2183            2445     67.5532E-03     69.0209E-03
            2185            2445     67.5532E-03     69.0209E-03
            2182            2445     67.5532E-03     69.0209E-03
            2186            2445     67.5532E-03     69.0209E-03
            2183            2446     89.8795E-03     90.6866E-03
            2186            2446     89.8795E-03     90.6866E-03
            2184            2446     89.8795E-03     90.6866E-03
            2187            2446     89.8795E-03     90.6866E-03
            2185            2447     69.6289E-03     72.8723E-03
            2186            2447     69.6289E-03     72.8723E-03
            2188            2447     69.6289E-03     72.8723E-03
            2189            2447     69.6289E-03     72.8723E-03
            2189            2448     98.3211E-03     99.7976E-03
            2187            2448     98.3211E-03     99.7976E-03
            2190            2448     98.3211E-03     99.7976E-03
            2186            2448     98.3211E-03     99.7976E-03
            2192            2449     65.9214E-03     67.1422E-03
            2188            2449     65.9214E-03     67.1422E-03
            2191            2449     65.9214E-03     67.1422E-03
            2189            2449     65.9214E-03     67.1422E-03
            2189            2450     104.751E-03     102.850E-03
            2193            2450     104.751E-03     102.850E-03
            2190            2450     104.751E-03     102.850E-03
            2192            2450     104.751E-03     102.850E-03
            2191            2451     66.9664E-03     62.8543E-03
            2195            2451     66.9664E-03     62.8543E-03
            2192            2451     66.9664E-03     62.8543E-03
            2194            2451     66.9664E-03     62.8543E-03
            2193            2452     99.2261E-03     91.0970E-03
            2195            2452     99.2261E-03     91.0970E-03
            2196            2452     99.2261E-03     91.0970E-03
            2192            2452     99.2261E-03     91.0970E-03
            2194            2453     72.8924E-03     68.0540E-03
            2198            2453     72.8924E-03     68.0540E-03
            2195            2453     72.8924E-03     68.0540E-03
            2197            2453     72.8924E-03     68.0540E-03
            2198            2454     97.5835E-03     93.9764E-03
            2196            2454     97.5835E-03     93.9764E-03
            2195            2454     97.5835E-03     93.9764E-03
            2199            2454     97.5835E-03     93.9764E-03
            2197            2455     75.2376E-03     73.7434E-03
            2201            2455     75.2376E-03     73.7434E-03
            2200            2455     75.2376E-03     73.7434E-03
            2198            2455     75.2376E-03     73.7434E-03
            2199            2456     107.127E-03     108.838E-03
            2202            2456     107.127E-03     108.838E-03
            2201            2456     107.127E-03     108.838E-03
            2198            2456     107.127E-03     108.838E-03
            2201            2457     78.5195E-03     78.8235E-03
            2204            2457     78.5195E-03     78.8235E-03
            2200            2457     78.5195E-03     78.8235E-03
            2203            2457     78.5195E-03     78.8235E-03
            2204            2458     114.923E-03     115.479E-03
            2202            2458     114.923E-03     115.479E-03
            2205            2458     114.923E-03     115.479E-03
            2201            2458     114.923E-03     115.479E-03
            2206            2459     82.2677E-03     84.5058E-03
            2204            2459     82.2677E-03     84.5058E-03
            2203            2459     82.2677E-03     84.5058E-03
            2207            2459     82.2677E-03     84.5058E-03
            2205            2460     122.371E-03     122.431E-03
            2204            2460     122.371E-03     122.431E-03
            2207            2460     122.371E-03     122.431E-03
            2208            2460     122.371E-03     122.431E-03
            2210            2461     84.5946E-03     89.1853E-03
            2207            2461     84.5946E-03     89.1853E-03
            2209            2461     84.5946E-03     89.1853E-03
            2206            2461     84.5946E-03     89.1853E-03
            2210            2462     131.225E-03     132.913E-03
            2207            2462     131.225E-03     132.913E-03
            2211            2462     131.225E-03     132.913E-03
            2208            2462     131.225E-03     132.913E-03
            2209            2463     79.7963E-03     80.8935E-03
            2212            2463     79.7963E-03     80.8935E-03
            2210            2463     79.7963E-03     80.8935E-03
            2213            2463     79.7963E-03     80.8935E-03
            2210            2464     137.167E-03     134.086E-03
            2211            2464     137.167E-03     134.086E-03
            2213            2464     137.167E-03     134.086E-03
            2214            2464     137.167E-03     134.086E-03
            2215            2465     80.8651E-03     75.1516E-03
            2213            2465     80.8651E-03     75.1516E-03
            2212            2465     80.8651E-03     75.1516E-03
            2216            2465     80.8651E-03     75.1516E-03
            2213            2466     130.010E-03     119.006E-03
            2214            2466     130.010E-03     119.006E-03
            2216            2466     130.010E-03     119.006E-03
            2217            2466     130.010E-03     119.006E-03
            2219            2467     88.1115E-03     82.7050E-03
            2218            2467     88.1115E-03     82.7050E-03
            2215            2467     88.1115E-03     82.7050E-03
            2216            2467     88.1115E-03     82.7050E-03
            2220            2468     129.114E-03     124.793E-03
            2219            2468     129.114E-03     124.793E-03
            2216            2468     129.114E-03     124.793E-03
            2217            2468     129.114E-03     124.793E-03
            2218            2469     90.8361E-03     90.4714E-03
            2221            2469     90.8361E-03     90.4714E-03
            2219            2469     90.8361E-03     90.4714E-03
            2222            2469     90.8361E-03     90.4714E-03
            2223            2470     140.093E-03     143.065E-03
            2222            2470     140.093E-03     143.065E-03
            2220            2470     140.093E-03     143.065E-03
            2219            2470     140.093E-03     143.065E-03
            2221            2471     94.6955E-03     98.0478E-03
            2225            2471     94.6955E-03     98.0478E-03
            2222            2471     94.6955E-03     98.0478E-03
            2224            2471     94.6955E-03     98.0478E-03
            2223            2472     147.829E-03     149.548E-03
            2226            2472     147.829E-03     149.548E-03
            2225            2472     147.829E-03     149.548E-03
            2222            2472     147.829E-03     149.548E-03
            2227            2473     97.0487E-03     102.682E-03
            2228            2473     97.0487E-03     102.682E-03
            2225            2473     97.0487E-03     102.682E-03
            2224            2473     97.0487E-03     102.682E-03
            2228            2474     157.340E-03     160.294E-03
            2225            2474     157.340E-03     160.294E-03
            2226            2474     157.340E-03     160.294E-03
            2229            2474     157.340E-03     160.294E-03
            2227            2475     91.5025E-03     92.4542E-03
            2231            2475     91.5025E-03     92.4542E-03
            2228            2475     91.5025E-03     92.4542E-03
            2230            2475     91.5025E-03     92.4542E-03
            2229            2476     163.158E-03     159.496E-03
            2231            2476     163.158E-03     159.496E-03
            2228            2476     163.158E-03     159.496E-03
            2232            2476     163.158E-03     159.496E-03
            2234            2477     83.4213E-03     81.1158E-03
            2230            2477     83.4213E-03     81.1158E-03
            2231            2477     83.4213E-03     81.1158E-03
            2233            2477     83.4213E-03     81.1158E-03
            2232            2478     154.984E-03     148.846E-03
            2235            2478     154.984E-03     148.846E-03
            2234            2478     154.984E-03     148.846E-03
            2231            2478     154.984E-03     148.846E-03
            2240            2479     188.704E-03     185.092E-03
            2239            2479     188.704E-03     185.092E-03
            2237            2479     188.704E-03     185.092E-03
            2236            2479     188.704E-03     185.092E-03
            2237            2480     122.501E-03     122.152E-03
            2238            2480     122.501E-03     122.152E-03
            2240            2480     122.501E-03     122.152E-03
            2241            2480     122.501E-03     122.152E-03
            2240            2481     200.924E-03     200.749E-03
            2243            2481     200.924E-03     200.749E-03
            2242            2481     200.924E-03     200.749E-03
            2239            2481     200.924E-03     200.749E-03
            2240            2482     147.260E-03     150.140E-03
            2243            2482     147.260E-03     150.140E-03
            2241            2482     147.260E-03     150.140E-03
            2244            2482     147.260E-03     150.140E-03
            2246            2483     184.379E-03     189.293E-03
            2245            2483     184.379E-03     189.293E-03
            2242            2483     184.379E-03     189.293E-03
            2243            2483     184.379E-03     189.293E-03
            2243            2484     155.487E-03     158.493E-03
            2244            2484     155.487E-03     158.493E-03
            2247            2484     155.487E-03     158.493E-03
            2246            2484     155.487E-03     158.493E-03
            2248            2485     160.465E-03     158.607E-03
            2245            2485     160.465E-03     158.607E-03
            2249            2485     160.465E-03     158.607E-03
            2246            2485     160.465E-03     158.607E-03
            2249            2486     153.269E-03     150.797E-03
            2247            2486     153.269E-03     150.797E-03
            2250            2486     153.269E-03     150.797E-03
            2246            2486     153.269E-03     150.797E-03
            2326            2539     147.162E-03     151.751E-03
            2329            2539     147.162E-03     151.751E-03
            2330            2539     147.162E-03     151.751E-03
            2327            2539     147.162E-03     151.751E-03
            2330            2540     93.1577E-03     95.4955E-03
            2328            2540     93.1577E-03     95.4955E-03
            2331            2540     93.1577E-03     95.4955E-03
            2327            2540     93.1577E-03     95.4955E-03
            2330            2541     162.632E-03     167.253E-03
            2332            2541     162.632E-03     167.253E-03
            2333            2541     162.632E-03     167.253E-03
            2329            2541     162.632E-03     167.253E-03
            2331            2542     96.9121E-03     103.737E-03
            2330            2542     96.9121E-03     103.737E-03
            2334            2542     96.9121E-03     103.737E-03
            2333            2542     96.9121E-03     103.737E-03
            2335            2543     171.502E-03     177.975E-03
            2333            2543     171.502E-03     177.975E-03
            2336            2543     171.502E-03     177.975E-03
            2332            2543     171.502E-03     177.975E-03
            2337            2544     99.8673E-03     108.070E-03
            2336            2544     99.8673E-03     108.070E-03
            2334            2544     99.8673E-03     108.070E-03
            2333            2544     99.8673E-03     108.070E-03
            2335            2545     180.399E-03     171.680E-03
            2339            2545     180.399E-03     171.680E-03
            2336            2545     180.399E-03     171.680E-03
            2338            2545     180.399E-03     171.680E-03
            2340            2546     95.8440E-03     93.1244E-03
            2337            2546     95.8440E-03     93.1244E-03
            2339            2546     95.8440E-03     93.1244E-03
            2336            2546     95.8440E-03     93.1244E-03
            2342            2547     134.872E-03     134.906E-03
            2344            2547     134.872E-03     134.906E-03
            2341            2547     134.872E-03     134.906E-03
            2345            2547     134.872E-03     134.906E-03
            2345            2548     150.846E-03     150.788E-03
            2342            2548     150.846E-03     150.788E-03
            2343            2548     150.846E-03     150.788E-03
            2346            2548     150.846E-03     150.788E-03
            2348            2549     135.820E-03     136.071E-03
            2345            2549     135.820E-03     136.071E-03
            2347            2549     135.820E-03     136.071E-03
            2344            2549     135.820E-03     136.071E-03
            2345            2550     150.704E-03     148.955E-03
            2346            2550     150.704E-03     148.955E-03
            2348            2550     150.704E-03     148.955E-03
            2349            2550     150.704E-03     148.955E-03
            2351            2551     132.647E-03     134.829E-03
            2350            2551     132.647E-03     134.829E-03
            2347            2551     132.647E-03     134.829E-03
            2348            2551     132.647E-03     134.829E-03
            2349            2552     152.812E-03     152.199E-03
            2352            2552     152.812E-03     152.199E-03
            2351            2552     152.812E-03     152.199E-03
            2348            2552     152.812E-03     152.199E-03
            2350            2553     139.006E-03     141.288E-03
            2354            2553     139.006E-03     141.288E-03
            2351            2553     139.006E-03     141.288E-03
            2353            2553     139.006E-03     141.288E-03
            2354            2554     137.212E-03     137.651E-03
            2352            2554     137.212E-03     137.651E-03
            2355            2554     137.212E-03     137.651E-03
            2351            2554     137.212E-03     137.651E-03
            2353            2555     136.558E-03     137.467E-03
            2357            2555     136.558E-03     137.467E-03
            2356            2555     136.558E-03     137.467E-03
            2354            2555     136.558E-03     137.467E-03
            2355            2556     121.690E-03     121.840E-03
            2358            2556     121.690E-03     121.840E-03
            2354            2556     121.690E-03     121.840E-03
            2357            2556     121.690E-03     121.840E-03
            2360            2557     133.830E-03     133.570E-03
            2357            2557     133.830E-03     133.570E-03
            2359            2557     133.830E-03     133.570E-03
            2356            2557     133.830E-03     133.570E-03
            2357            2558     111.636E-03     112.362E-03
            2358            2558     111.636E-03     112.362E-03
            2360            2558     111.636E-03     112.362E-03
            2361            2558     111.636E-03     112.362E-03
            2362            2559     131.857E-03     129.735E-03
            2359            2559     131.857E-03     129.735E-03
            2363            2559     131.857E-03     129.735E-03
            2360            2559     131.857E-03     129.735E-03
            2363            2560     106.559E-03     107.315E-03
            2360            2560     106.559E-03     107.315E-03
            2364            2560     106.559E-03     107.315E-03
            2361            2560     106.559E-03     107.315E-03
            2363            2561     127.444E-03     124.849E-03
            2366            2561     127.444E-03     124.849E-03
            2362            2561     127.444E-03     124.849E-03
            2365            2561     127.444E-03     124.849E-03
            2363            2562     106.933E-03     106.826E-03
            2366            2562     106.933E-03     106.826E-03
            2367            2562     106.933E-03     106.826E-03
            2364            2562     106.933E-03     106.826E-03
            2366            2563     93.3473E-03     92.1471E-03
            2365            2563     93.3473E-03     92.1471E-03
            2368            2563     93.3473E-03     92.1471E-03
            2369            2563     93.3473E-03     92.1471E-03
            2367            2564     85.1166E-03     84.5610E-03
            2366            2564     85.1166E-03     84.5610E-03
            2370            2564     85.1166E-03     84.5610E-03
            2369            2564     85.1166E-03     84.5610E-03
            2821            2917     630.445E-06     632.972E-06
            2824            2917     630.445E-06     632.972E-06
            2822            2917     630.445E-06     632.972E-06
            2825            2917     630.445E-06     632.972E-06
            2825            2918     635.677E-06     647.679E-06
            2823            2918     635.677E-06     647.679E-06
            2822            2918     635.677E-06     647.679E-06
            2826            2918     635.677E-06     647.679E-06
            2828            2919     562.521E-06     571.286E-06
            2825            2919     562.521E-06     571.286E-06
            2827            2919     562.521E-06     571.286E-06
            2824            2919     562.521E-06     571.286E-06
            2828            2920     659.703E-06     672.264E-06
            2829            2920     659.703E-06     672.264E-06
            2825            2920     659.703E-06     672.264E-06
            2826            2920     659.703E-06     672.264E-06
            2828            2921     526.337E-06     533.742E-06
            2830            2921     526.337E-06     533.742E-06
            2827            2921     526.337E-06     533.742E-06
            2831            2921     526.337E-06     533.742E-06
            2832            2922     654.255E-06     660.437E-06
            2829            2922     654.255E-06     660.437E-06
            2828            2922     654.255E-06     660.437E-06
            2831            2922     654.255E-06     660.437E-06
            2834            2923     532.471E-06     539.178E-06
            2831            2923     532.471E-06     539.178E-06
            2830            2923     532.471E-06     539.178E-06
            2833            2923     532.471E-06     539.178E-06
            2834            2924     633.314E-06     635.745E-06
            2831            2924     633.314E-06     635.745E-06
            2832            2924     633.314E-06     635.745E-06
            2835            2924     633.314E-06     635.745E-06
            2887            2961     635.677E-06     647.679E-06
            2886            2961     635.677E-06     647.679E-06
            2889            2961     635.677E-06     647.679E-06
            2890            2961     635.677E-06     647.679E-06
            2891            2962     630.445E-06     632.972E-06
            2887            2962     630.445E-06     632.972E-06
            2888            2962     630.445E-06     632.972E-06
            2890            2962     630.445E-06     632.972E-06
            2889            2963     659.703E-06     672.264E-06
            2890            2963     659.703E-06     672.264E-06
            2892            2963     659.703E-06     672.264E-06
            2893            2963     659.703E-06     672.264E-06
            2893            2964     562.521E-06     571.286E-06
            2894            2964     562.521E-06     571.286E-06
            2890            2964     562.521E-06     571.286E-06
            2891            2964     562.521E-06     571.286E-06
            2892            2965     654.255E-06     660.437E-06
            2896            2965     654.255E-06     660.437E-06
            2893            2965     654.255E-06     660.437E-06
            2895            2965     654.255E-06     660.437E-06
            2897            2966     526.337E-06     533.742E-06
            2893            2966     526.337E-06     533.742E-06
            2896            2966     526.337E-06     533.742E-06
            2894            2966     526.337E-06     533.742E-06
            2896            2967     633.314E-06     635.745E-06
            2895            2967     633.314E-06     635.745E-06
            2899            2967     633.314E-06     635.745E-06
            2898            2967     633.314E-06     635.745E-06
            2900            2968     532.471E-06     539.178E-06
            2897            2968     532.471E-06     539.178E-06
            2899            2968     532.471E-06     539.178E-06
            2896            2968     532.471E-06     539.178E-06
            2905            2969     116.508E-03     117.023E-03
            2901            2969     116.508E-03     117.023E-03
            2902            2969     116.508E-03     117.023E-03
            2904            2969     116.508E-03     117.023E-03
            2903            2970     180.006E-03     177.719E-03
            2906            2970     180.006E-03     177.719E-03
            2902            2970     180.006E-03     177.719E-03
            2905            2970     180.006E-03     177.719E-03
            2905            2971     142.477E-03     146.283E-03
            2904            2971     142.477E-03     146.283E-03
            2907            2971     142.477E-03     146.283E-03
            2908            2971     142.477E-03     146.283E-03
            2909            2972     193.054E-03     194.082E-03
            2908            2972     193.054E-03     194.082E-03
            2905            2972     193.054E-03     194.082E-03
            2906            2972     193.054E-03     194.082E-03
            2911            2973     151.651E-03     154.380E-03
            2908            2973     151.651E-03     154.380E-03
            2910            2973     151.651E-03     154.380E-03
            2907            2973     151.651E-03     154.380E-03
            2908            2974     177.579E-03     182.636E-03
            2909            2974     177.579E-03     182.636E-03
            2911            2974     177.579E-03     182.636E-03
            2912            2974     177.579E-03     182.636E-03
            2910            2975     150.691E-03     147.488E-03
            2913            2975     150.691E-03     147.488E-03
            2914            2975     150.691E-03     147.488E-03
            2911            2975     150.691E-03     147.488E-03
            2914            2976     155.595E-03     152.899E-03
            2912            2976     155.595E-03     152.899E-03
            2915            2976     155.595E-03     152.899E-03
            2911            2976     155.595E-03     152.899E-03
            2942            2993     154.526E-03     154.404E-03
            2945            2993     154.526E-03     154.404E-03
            2941            2993     154.526E-03     154.404E-03
            2944            2993     154.526E-03     154.404E-03
            2945            2994     136.906E-03     136.854E-03
            2946            2994     136.906E-03     136.854E-03
            2942            2994     136.906E-03     136.854E-03
            2943            2994     136.906E-03     136.854E-03
            2948            2995     153.312E-03     152.109E-03
            2947            2995     153.312E-03     152.109E-03
            2944            2995     153.312E-03     152.109E-03
            2945            2995     153.312E-03     152.109E-03
            2948            2996     137.135E-03     137.751E-03
            2945            2996     137.135E-03     137.751E-03
            2949            2996     137.135E-03     137.751E-03
            2946            2996     137.135E-03     137.751E-03
            2950            2997     155.529E-03     154.400E-03
            2947            2997     155.529E-03     154.400E-03
            2951            2997     155.529E-03     154.400E-03
            2948            2997     155.529E-03     154.400E-03
            2948            2998     133.949E-03     135.895E-03
            2951            2998     133.949E-03     135.895E-03
            2949            2998     133.949E-03     135.895E-03
            2952            2998     133.949E-03     135.895E-03
            2951            2999     139.391E-03     139.637E-03
            2953            2999     139.391E-03     139.637E-03
            2950            2999     139.391E-03     139.637E-03
            2954            2999     139.391E-03     139.637E-03
            2952            3000     140.075E-03     142.280E-03
            2954            3000     140.075E-03     142.280E-03
            2951            3000     140.075E-03     142.280E-03
            2955            3000     140.075E-03     142.280E-03
            2957            3001     123.459E-03     123.149E-03
            2954            3001     123.459E-03     123.149E-03
            2956            3001     123.459E-03     123.149E-03
            2953            3001     123.459E-03     123.149E-03
            2955            3002     137.464E-03     138.054E-03
            2957            3002     137.464E-03     138.054E-03
            2958            3002     137.464E-03     138.054E-03
            2954            3002     137.464E-03     138.054E-03
            2959            3003     112.800E-03     113.160E-03
            2957            3003     112.800E-03     113.160E-03
            2960            3003     112.800E-03     113.160E-03
            2956            3003     112.800E-03     113.160E-03
            2960            3004     134.404E-03     133.839E-03
            2958            3004     134.404E-03     133.839E-03
            2961            3004     134.404E-03     133.839E-03
            2957            3004     134.404E-03     133.839E-03
            2959            3005     106.926E-03     107.514E-03
            2962            3005     106.926E-03     107.514E-03
            2960            3005     106.926E-03     107.514E-03
            2963            3005     106.926E-03     107.514E-03
            2963            3006     131.932E-03     129.895E-03
            2961            3006     131.932E-03     129.895E-03
            2964            3006     131.932E-03     129.895E-03
            2960            3006     131.932E-03     129.895E-03
            2963            3007     106.264E-03     106.310E-03
            2966            3007     106.264E-03     106.310E-03
            2965            3007     106.264E-03     106.310E-03
            2962            3007     106.264E-03     106.310E-03
            2964            3008     127.153E-03     124.820E-03
            2966            3008     127.153E-03     124.820E-03
            2963            3008     127.153E-03     124.820E-03
            2967            3008     127.153E-03     124.820E-03
            2966            3009     84.5433E-03     84.1063E-03
            2965            3009     84.5433E-03     84.1063E-03
            2968            3009     84.5433E-03     84.1063E-03
            2969            3009     84.5433E-03     84.1063E-03
            2967            3010     93.1653E-03     92.0574E-03
            2970            3010     93.1653E-03     92.0574E-03
            2966            3010     93.1653E-03     92.0574E-03
            2969            3010     93.1653E-03     92.0574E-03


  Minimum                            429.209E-06     439.249E-06
      At Element                            2897            1012
            Node                             571             154

  Maximum                            234.134E-03     229.715E-03
      At Element                            2242            2242
            Node                             429             429

           Total                         128.595         127.993


