********************************************************************************
Field Output Report, written Fri Feb 15 18:41:48 2019

Source 1
---------

   ODB: C:/Scratch/F100-19.odb
   Step: Jam1
   Frame: Increment      1: Step Time =    1.000

Loc 1 : Element nodal  values at shell < ALUMINIUM > < 5 section points > from source 1 : SNEG, (fraction = -1.0) ( Average criteria = 75%, Not averaged across region boundaries )
Loc 2 : Element nodal  values at shell < ALUMINIUM > < 5 section points > from source 1 : SPOS, (fraction = 1.0) ( Average criteria = 75%, Not averaged across region boundaries )

Output sorted by column "Node Label".

Field Output reported at element nodes for region: F100-1.Region_1
   Computation algorithm: EXTRAPOLATE_COMPUTE_AVERAGE
   Averaged at nodes
   Averaging regions: ODB_REGIONS

   Element Label      Node Label         S.Mises         S.Mises
                                          @Loc 1          @Loc 2
-----------------------------------------------------------------
            1132               1     5.12571E-03     5.20370E-03
            2387               1     5.12571E-03     5.20370E-03
             596               1     5.12571E-03     5.20370E-03
               1               1     5.12571E-03     5.20370E-03
             685               2     3.20858E-03     5.41435E-03
            1956               2     3.20858E-03     5.41435E-03
            2371               2     3.20858E-03     5.41435E-03
              17               2     3.20858E-03     5.41435E-03
             595               3     192.938E-03     199.316E-03
            2126               3     192.938E-03     199.316E-03
            1736               3     192.938E-03     199.316E-03
            1047               3     192.938E-03     199.316E-03
             579               4     41.1581E-03     44.8676E-03
            1710               4     41.1581E-03     44.8676E-03
            1777               4     41.1581E-03     44.8676E-03
            1031               4     41.1581E-03     44.8676E-03
             612               5     2.65044E-03     4.94847E-03
            1711               5     2.65044E-03     4.94847E-03
             710               5     2.65044E-03     4.94847E-03
            1116               5     2.65044E-03     4.94847E-03
            1731               6     172.823E-06     287.192E-06
             680               6     172.823E-06     287.192E-06
            2455               7     358.744E-06     427.057E-06
             664               7     358.744E-06     427.057E-06
            1960               8     25.6467E-03     25.3249E-03
             706               8     25.6467E-03     25.3249E-03
            1715               8     25.6467E-03     25.3249E-03
             681               8     25.6467E-03     25.3249E-03
            2439               9     172.823E-06     287.192E-06
             705               9     172.823E-06     287.192E-06
            1735              10     737.951E-06     726.605E-06
             701              10     737.951E-06     726.605E-06
             880              11     231.183E-03     234.884E-03
            1761              11     231.183E-03     234.884E-03
            2800              11     231.183E-03     234.884E-03
            1694              11     231.183E-03     234.884E-03
             876              12     73.1468E-03     77.2365E-03
            2796              12     73.1468E-03     77.2365E-03
            1740              12     73.1468E-03     77.2365E-03
            2130              12     73.1468E-03     77.2365E-03
            1756              16     229.108E-03     242.097E-03
            1115              16     229.108E-03     242.097E-03
            2251              16     229.108E-03     242.097E-03
            1862              16     229.108E-03     242.097E-03
            1846              18     40.0695E-03     48.5460E-03
            2727              18     40.0695E-03     48.5460E-03
            1099              18     40.0695E-03     48.5460E-03
            1845              18     40.0695E-03     48.5460E-03
            2816              19     90.7406E-03     90.8289E-03
            1931              19     90.7406E-03     90.8289E-03
            2255              19     90.7406E-03     90.8289E-03
            1760              19     90.7406E-03     90.8289E-03
            1829              20     224.266E-03     240.653E-03
            2820              20     224.266E-03     240.653E-03
            1935              20     224.266E-03     240.653E-03
            2711              20     224.266E-03     240.653E-03
            3072              21     149.501E-03     156.515E-03
            1930              21     149.501E-03     156.515E-03
            2271              21     149.501E-03     156.515E-03
            2836              21     149.501E-03     156.515E-03
            2795              22     25.7491E-03     30.2177E-03
            2472              22     25.7491E-03     30.2177E-03
            1914              22     25.7491E-03     30.2177E-03
            3056              22     25.7491E-03     30.2177E-03
            2456              23     144.926E-03     151.680E-03
            2779              23     144.926E-03     151.680E-03
            2280              23     144.926E-03     151.680E-03
            1955              23     144.926E-03     151.680E-03
            2275              24     116.773E-03     116.898E-03
            2276              24     116.773E-03     116.898E-03
            2840              24     116.773E-03     116.898E-03
            1951              24     116.773E-03     116.898E-03
            2971              26     10.5405E-03     10.7617E-03
            2609              26     10.5405E-03     10.7617E-03
            3230              26     10.5405E-03     10.7617E-03
            2325              26     10.5405E-03     10.7617E-03
            2885              27     38.7019E-03     38.8268E-03
            2321              27     38.7019E-03     38.8268E-03
            3226              27     38.7019E-03     38.8268E-03
            2920              27     38.7019E-03     38.8268E-03
            2642              28     7.49832E-03     7.66507E-03
            3225              28     7.49832E-03     7.66507E-03
            2881              28     7.49832E-03     7.66507E-03
            2916              28     7.49832E-03     7.66507E-03
            3209              30     2.57523E-03     2.60597E-03
            2626              30     2.57523E-03     2.60597E-03
            2625              30     2.57523E-03     2.60597E-03
            2987              30     2.57523E-03     2.60597E-03
            2710              31     173.010E-06     283.740E-06
            2936              31     173.010E-06     283.740E-06
            2694              32     361.964E-06     430.210E-06
            3055              32     361.964E-06     430.210E-06
            3250              34     173.010E-06     283.740E-06
            3039              34     173.010E-06     283.740E-06
            3246              35     740.889E-06     729.350E-06
            2940              35     740.889E-06     729.350E-06
            2387              36     3.54421E-03     3.24795E-03
               2              36     3.54421E-03     3.24795E-03
               1              36     3.54421E-03     3.24795E-03
            2386              36     3.54421E-03     3.24795E-03
            2385              37     3.56792E-03     2.58987E-03
            2386              37     3.56792E-03     2.58987E-03
               3              37     3.56792E-03     2.58987E-03
               2              37     3.56792E-03     2.58987E-03
               4              38     3.68140E-03     2.65023E-03
            2385              38     3.68140E-03     2.65023E-03
               3              38     3.68140E-03     2.65023E-03
            2384              38     3.68140E-03     2.65023E-03
            2384              39     3.81663E-03     2.53534E-03
               4              39     3.81663E-03     2.53534E-03
               5              39     3.81663E-03     2.53534E-03
            2383              39     3.81663E-03     2.53534E-03
               5              40     3.95034E-03     2.47743E-03
               6              40     3.95034E-03     2.47743E-03
            2383              40     3.95034E-03     2.47743E-03
            2382              40     3.95034E-03     2.47743E-03
               6              41     4.08934E-03     2.41456E-03
            2382              41     4.08934E-03     2.41456E-03
               7              41     4.08934E-03     2.41456E-03
            2381              41     4.08934E-03     2.41456E-03
               8              42     4.22966E-03     2.36418E-03
               7              42     4.22966E-03     2.36418E-03
            2381              42     4.22966E-03     2.36418E-03
            2380              42     4.22966E-03     2.36418E-03
            2380              43     4.37322E-03     2.32201E-03
            2379              43     4.37322E-03     2.32201E-03
               8              43     4.37322E-03     2.32201E-03
               9              43     4.37322E-03     2.32201E-03
            2379              44     4.51818E-03     2.29106E-03
            2378              44     4.51818E-03     2.29106E-03
              10              44     4.51818E-03     2.29106E-03
               9              44     4.51818E-03     2.29106E-03
              10              45     4.66541E-03     2.26876E-03
            2378              45     4.66541E-03     2.26876E-03
              11              45     4.66541E-03     2.26876E-03
            2377              45     4.66541E-03     2.26876E-03
            2377              46     4.81787E-03     2.26234E-03
              11              46     4.81787E-03     2.26234E-03
              12              46     4.81787E-03     2.26234E-03
            2376              46     4.81787E-03     2.26234E-03
            2376              47     4.95362E-03     2.25025E-03
            2375              47     4.95362E-03     2.25025E-03
              13              47     4.95362E-03     2.25025E-03
              12              47     4.95362E-03     2.25025E-03
              13              48     5.16036E-03     2.30906E-03
            2375              48     5.16036E-03     2.30906E-03
            2374              48     5.16036E-03     2.30906E-03
              14              48     5.16036E-03     2.30906E-03
            2373              49     5.10254E-03     2.14796E-03
              14              49     5.10254E-03     2.14796E-03
              15              49     5.10254E-03     2.14796E-03
            2374              49     5.10254E-03     2.14796E-03
              15              50     6.02126E-03     2.93292E-03
            2373              50     6.02126E-03     2.93292E-03
            2372              50     6.02126E-03     2.93292E-03
              16              50     6.02126E-03     2.93292E-03
              17              51     5.29088E-03     4.45809E-03
            2372              51     5.29088E-03     4.45809E-03
            2371              51     5.29088E-03     4.45809E-03
              16              51     5.29088E-03     4.45809E-03
            1961              52     9.06043E-03     15.2011E-03
              34              52     9.06043E-03     15.2011E-03
              17              52     9.06043E-03     15.2011E-03
            1956              52     9.06043E-03     15.2011E-03
            1966              53     14.2966E-03     18.5773E-03
              34              53     14.2966E-03     18.5773E-03
              51              53     14.2966E-03     18.5773E-03
            1961              53     14.2966E-03     18.5773E-03
              51              54     17.5366E-03     18.6011E-03
            1966              54     17.5366E-03     18.6011E-03
              68              54     17.5366E-03     18.6011E-03
            1971              54     17.5366E-03     18.6011E-03
              68              55     25.3401E-03     23.9119E-03
              85              55     25.3401E-03     23.9119E-03
            1971              55     25.3401E-03     23.9119E-03
            1976              55     25.3401E-03     23.9119E-03
              85              56     34.1892E-03     35.2149E-03
            1976              56     34.1892E-03     35.2149E-03
            1981              56     34.1892E-03     35.2149E-03
             102              56     34.1892E-03     35.2149E-03
            1981              57     46.2607E-03     45.1669E-03
             102              57     46.2607E-03     45.1669E-03
             119              57     46.2607E-03     45.1669E-03
            1986              57     46.2607E-03     45.1669E-03
            1991              58     56.8427E-03     57.8526E-03
             136              58     56.8427E-03     57.8526E-03
             119              58     56.8427E-03     57.8526E-03
            1986              58     56.8427E-03     57.8526E-03
            1996              59     52.0526E-03     55.7545E-03
             136              59     52.0526E-03     55.7545E-03
            1991              59     52.0526E-03     55.7545E-03
             153              59     52.0526E-03     55.7545E-03
            2001              60     50.9210E-03     48.0944E-03
            1996              60     50.9210E-03     48.0944E-03
             153              60     50.9210E-03     48.0944E-03
             170              60     50.9210E-03     48.0944E-03
            2001              61     59.2905E-03     59.4362E-03
             170              61     59.2905E-03     59.4362E-03
            2006              61     59.2905E-03     59.4362E-03
             187              61     59.2905E-03     59.4362E-03
            2006              62     69.5812E-03     68.7616E-03
            2011              62     69.5812E-03     68.7616E-03
             187              62     69.5812E-03     68.7616E-03
             204              62     69.5812E-03     68.7616E-03
            2011              63     77.7619E-03     80.4676E-03
             221              63     77.7619E-03     80.4676E-03
            2016              63     77.7619E-03     80.4676E-03
             204              63     77.7619E-03     80.4676E-03
             238              64     90.7441E-03     89.3739E-03
            2016              64     90.7441E-03     89.3739E-03
            2021              64     90.7441E-03     89.3739E-03
             221              64     90.7441E-03     89.3739E-03
             255              65     101.107E-03     101.499E-03
            2021              65     101.107E-03     101.499E-03
            2026              65     101.107E-03     101.499E-03
             238              65     101.107E-03     101.499E-03
             255              66     93.6232E-03     99.6411E-03
            2026              66     93.6232E-03     99.6411E-03
             272              66     93.6232E-03     99.6411E-03
            2031              66     93.6232E-03     99.6411E-03
             272              67     92.9779E-03     90.4321E-03
             289              67     92.9779E-03     90.4321E-03
            2036              67     92.9779E-03     90.4321E-03
            2031              67     92.9779E-03     90.4321E-03
            2036              68     103.005E-03     100.714E-03
             289              68     103.005E-03     100.714E-03
             306              68     103.005E-03     100.714E-03
            2041              68     103.005E-03     100.714E-03
             306              69     109.567E-03     114.115E-03
            2041              69     109.567E-03     114.115E-03
            2046              69     109.567E-03     114.115E-03
             323              69     109.567E-03     114.115E-03
            2051              70     123.998E-03     121.578E-03
             340              70     123.998E-03     121.578E-03
             323              70     123.998E-03     121.578E-03
            2046              70     123.998E-03     121.578E-03
             340              71     133.988E-03     134.119E-03
            2051              71     133.988E-03     134.119E-03
            2056              71     133.988E-03     134.119E-03
             357              71     133.988E-03     134.119E-03
            2056              72     126.858E-03     134.959E-03
             374              72     126.858E-03     134.959E-03
            2061              72     126.858E-03     134.959E-03
             357              72     126.858E-03     134.959E-03
             391              73     129.384E-03     125.027E-03
            2061              73     129.384E-03     125.027E-03
            2066              73     129.384E-03     125.027E-03
             374              73     129.384E-03     125.027E-03
            2071              74     136.455E-03     136.341E-03
             408              74     136.455E-03     136.341E-03
             391              74     136.455E-03     136.341E-03
            2066              74     136.455E-03     136.341E-03
            2076              75     144.741E-03     145.281E-03
             408              75     144.741E-03     145.281E-03
            2071              75     144.741E-03     145.281E-03
             425              75     144.741E-03     145.281E-03
             442              76     152.349E-03     156.147E-03
            2076              76     152.349E-03     156.147E-03
             425              76     152.349E-03     156.147E-03
            2081              76     152.349E-03     156.147E-03
            2081              77     165.673E-03     164.103E-03
            2086              77     165.673E-03     164.103E-03
             442              77     165.673E-03     164.103E-03
             459              77     165.673E-03     164.103E-03
             476              78     176.061E-03     174.991E-03
             459              78     176.061E-03     174.991E-03
            2091              78     176.061E-03     174.991E-03
            2086              78     176.061E-03     174.991E-03
             493              79     165.909E-03     176.362E-03
            2091              79     165.909E-03     176.362E-03
             476              79     165.909E-03     176.362E-03
            2096              79     165.909E-03     176.362E-03
            2101              80     168.239E-03     164.904E-03
             493              80     168.239E-03     164.904E-03
             510              80     168.239E-03     164.904E-03
            2096              80     168.239E-03     164.904E-03
            2106              81     177.404E-03     173.724E-03
             527              81     177.404E-03     173.724E-03
            2101              81     177.404E-03     173.724E-03
             510              81     177.404E-03     173.724E-03
             527              82     180.496E-03     188.149E-03
            2106              82     180.496E-03     188.149E-03
            2111              82     180.496E-03     188.149E-03
             544              82     180.496E-03     188.149E-03
            2116              83     196.552E-03     192.739E-03
            2111              83     196.552E-03     192.739E-03
             561              83     196.552E-03     192.739E-03
             544              83     196.552E-03     192.739E-03
            2121              84     205.550E-03     204.830E-03
             561              84     205.550E-03     204.830E-03
            2116              84     205.550E-03     204.830E-03
             578              84     205.550E-03     204.830E-03
            2126              85     194.347E-03     205.444E-03
             595              85     194.347E-03     205.444E-03
             578              85     194.347E-03     205.444E-03
            2121              85     194.347E-03     205.444E-03
             595              86     189.807E-03     192.143E-03
            1046              86     189.807E-03     192.143E-03
             594              86     189.807E-03     192.143E-03
            1047              86     189.807E-03     192.143E-03
             594              87     181.638E-03     184.124E-03
            1045              87     181.638E-03     184.124E-03
             593              87     181.638E-03     184.124E-03
            1046              87     181.638E-03     184.124E-03
            1045              88     171.657E-03     175.453E-03
             593              88     171.657E-03     175.453E-03
            1044              88     171.657E-03     175.453E-03
             592              88     171.657E-03     175.453E-03
             591              89     160.794E-03     165.715E-03
             592              89     160.794E-03     165.715E-03
            1043              89     160.794E-03     165.715E-03
            1044              89     160.794E-03     165.715E-03
            1043              90     149.518E-03     155.306E-03
             590              90     149.518E-03     155.306E-03
            1042              90     149.518E-03     155.306E-03
             591              90     149.518E-03     155.306E-03
            1041              91     137.976E-03     144.622E-03
             589              91     137.976E-03     144.622E-03
             590              91     137.976E-03     144.622E-03
            1042              91     137.976E-03     144.622E-03
             589              92     126.379E-03     133.786E-03
             588              92     126.379E-03     133.786E-03
            1041              92     126.379E-03     133.786E-03
            1040              92     126.379E-03     133.786E-03
            1039              93     114.668E-03     122.806E-03
             587              93     114.668E-03     122.806E-03
            1040              93     114.668E-03     122.806E-03
             588              93     114.668E-03     122.806E-03
            1038              94     102.931E-03     111.804E-03
             586              94     102.931E-03     111.804E-03
             587              94     102.931E-03     111.804E-03
            1039              94     102.931E-03     111.804E-03
            1038              95     91.1792E-03     100.731E-03
             585              95     91.1792E-03     100.731E-03
            1037              95     91.1792E-03     100.731E-03
             586              95     91.1792E-03     100.731E-03
             585              96     79.4556E-03     89.6751E-03
            1036              96     79.4556E-03     89.6751E-03
             584              96     79.4556E-03     89.6751E-03
            1037              96     79.4556E-03     89.6751E-03
             584              97     67.8231E-03     78.6126E-03
            1035              97     67.8231E-03     78.6126E-03
             583              97     67.8231E-03     78.6126E-03
            1036              97     67.8231E-03     78.6126E-03
            1035              98     56.3217E-03     67.6146E-03
             582              98     56.3217E-03     67.6146E-03
            1034              98     56.3217E-03     67.6146E-03
             583              98     56.3217E-03     67.6146E-03
             582              99     45.4050E-03     57.0159E-03
            1034              99     45.4050E-03     57.0159E-03
             581              99     45.4050E-03     57.0159E-03
            1033              99     45.4050E-03     57.0159E-03
             580             100     35.7665E-03     47.6841E-03
             581             100     35.7665E-03     47.6841E-03
            1032             100     35.7665E-03     47.6841E-03
            1033             100     35.7665E-03     47.6841E-03
            1032             101     32.7033E-03     46.4708E-03
             579             101     32.7033E-03     46.4708E-03
            1031             101     32.7033E-03     46.4708E-03
             580             101     32.7033E-03     46.4708E-03
            1710             102     22.7312E-03     23.5815E-03
            1693             102     22.7312E-03     23.5815E-03
             579             102     22.7312E-03     23.5815E-03
             562             102     22.7312E-03     23.5815E-03
            1676             103     23.5483E-03     24.7538E-03
            1693             103     23.5483E-03     24.7538E-03
             545             103     23.5483E-03     24.7538E-03
             562             103     23.5483E-03     24.7538E-03
             545             104     19.8590E-03     20.5141E-03
            1676             104     19.8590E-03     20.5141E-03
             528             104     19.8590E-03     20.5141E-03
            1659             104     19.8590E-03     20.5141E-03
             511             105     19.5265E-03     19.1232E-03
            1642             105     19.5265E-03     19.1232E-03
            1659             105     19.5265E-03     19.1232E-03
             528             105     19.5265E-03     19.1232E-03
             511             106     21.8946E-03     23.2910E-03
             494             106     21.8946E-03     23.2910E-03
            1642             106     21.8946E-03     23.2910E-03
            1625             106     21.8946E-03     23.2910E-03
             477             107     24.5121E-03     29.1170E-03
            1625             107     24.5121E-03     29.1170E-03
            1608             107     24.5121E-03     29.1170E-03
             494             107     24.5121E-03     29.1170E-03
            1608             108     23.9331E-03     27.1787E-03
             460             108     23.9331E-03     27.1787E-03
            1591             108     23.9331E-03     27.1787E-03
             477             108     23.9331E-03     27.1787E-03
             460             109     20.1629E-03     21.0040E-03
            1591             109     20.1629E-03     21.0040E-03
            1574             109     20.1629E-03     21.0040E-03
             443             109     20.1629E-03     21.0040E-03
            1574             110     16.9291E-03     16.9506E-03
             426             110     16.9291E-03     16.9506E-03
             443             110     16.9291E-03     16.9506E-03
            1557             110     16.9291E-03     16.9506E-03
             426             111     16.1542E-03     16.2947E-03
            1540             111     16.1542E-03     16.2947E-03
            1557             111     16.1542E-03     16.2947E-03
             409             111     16.1542E-03     16.2947E-03
             409             112     17.7395E-03     17.5077E-03
             392             112     17.7395E-03     17.5077E-03
            1540             112     17.7395E-03     17.5077E-03
            1523             112     17.7395E-03     17.5077E-03
            1506             113     20.7290E-03     21.9869E-03
             392             113     20.7290E-03     21.9869E-03
             375             113     20.7290E-03     21.9869E-03
            1523             113     20.7290E-03     21.9869E-03
             375             114     23.1118E-03     27.5116E-03
             358             114     23.1118E-03     27.5116E-03
            1506             114     23.1118E-03     27.5116E-03
            1489             114     23.1118E-03     27.5116E-03
            1489             115     20.2690E-03     23.0958E-03
             358             115     20.2690E-03     23.0958E-03
            1472             115     20.2690E-03     23.0958E-03
             341             115     20.2690E-03     23.0958E-03
            1455             116     15.2358E-03     15.1635E-03
            1472             116     15.2358E-03     15.1635E-03
             341             116     15.2358E-03     15.1635E-03
             324             116     15.2358E-03     15.1635E-03
            1438             117     13.2947E-03     13.3525E-03
            1455             117     13.2947E-03     13.3525E-03
             324             117     13.2947E-03     13.3525E-03
             307             117     13.2947E-03     13.3525E-03
            1421             118     13.9708E-03     13.3913E-03
             290             118     13.9708E-03     13.3913E-03
             307             118     13.9708E-03     13.3913E-03
            1438             118     13.9708E-03     13.3913E-03
             290             119     16.0463E-03     16.5415E-03
            1404             119     16.0463E-03     16.5415E-03
             273             119     16.0463E-03     16.5415E-03
            1421             119     16.0463E-03     16.5415E-03
            1387             120     17.5679E-03     20.7295E-03
             256             120     17.5679E-03     20.7295E-03
            1404             120     17.5679E-03     20.7295E-03
             273             120     17.5679E-03     20.7295E-03
            1370             121     15.6789E-03     17.6151E-03
             256             121     15.6789E-03     17.6151E-03
             239             121     15.6789E-03     17.6151E-03
            1387             121     15.6789E-03     17.6151E-03
             222             122     12.2812E-03     12.2951E-03
             239             122     12.2812E-03     12.2951E-03
            1353             122     12.2812E-03     12.2951E-03
            1370             122     12.2812E-03     12.2951E-03
             222             123     11.2974E-03     10.7099E-03
             205             123     11.2974E-03     10.7099E-03
            1353             123     11.2974E-03     10.7099E-03
            1336             123     11.2974E-03     10.7099E-03
             188             124     11.7237E-03     11.2944E-03
            1319             124     11.7237E-03     11.2944E-03
            1336             124     11.7237E-03     11.2944E-03
             205             124     11.7237E-03     11.2944E-03
            1302             125     13.1121E-03     12.2462E-03
             188             125     13.1121E-03     12.2462E-03
            1319             125     13.1121E-03     12.2462E-03
             171             125     13.1121E-03     12.2462E-03
            1302             126     14.9729E-03     14.9781E-03
             154             126     14.9729E-03     14.9781E-03
            1285             126     14.9729E-03     14.9781E-03
             171             126     14.9729E-03     14.9781E-03
             137             127     15.8059E-03     18.5248E-03
             154             127     15.8059E-03     18.5248E-03
            1268             127     15.8059E-03     18.5248E-03
            1285             127     15.8059E-03     18.5248E-03
            1251             128     12.8331E-03     15.5580E-03
            1268             128     12.8331E-03     15.5580E-03
             120             128     12.8331E-03     15.5580E-03
             137             128     12.8331E-03     15.5580E-03
             120             129     10.2984E-03     10.6509E-03
            1251             129     10.2984E-03     10.6509E-03
             103             129     10.2984E-03     10.6509E-03
            1234             129     10.2984E-03     10.6509E-03
             103             130     10.6838E-03     9.63150E-03
              86             130     10.6838E-03     9.63150E-03
            1234             130     10.6838E-03     9.63150E-03
            1217             130     10.6838E-03     9.63150E-03
              69             131     11.1527E-03     9.63084E-03
              86             131     11.1527E-03     9.63084E-03
            1200             131     11.1527E-03     9.63084E-03
            1217             131     11.1527E-03     9.63084E-03
            1200             132     12.0713E-03     11.0974E-03
              52             132     12.0713E-03     11.0974E-03
            1183             132     12.0713E-03     11.0974E-03
              69             132     12.0713E-03     11.0974E-03
              52             133     11.9933E-03     13.4179E-03
              35             133     11.9933E-03     13.4179E-03
            1166             133     11.9933E-03     13.4179E-03
            1183             133     11.9933E-03     13.4179E-03
            1149             134     10.6135E-03     12.3224E-03
            1166             134     10.6135E-03     12.3224E-03
              35             134     10.6135E-03     12.3224E-03
              18             134     10.6135E-03     12.3224E-03
            1132             135     9.82902E-03     10.2316E-03
               1             135     9.82902E-03     10.2316E-03
              18             135     9.82902E-03     10.2316E-03
            1149             135     9.82902E-03     10.2316E-03
             597             136     7.14941E-03     7.03301E-03
             596             136     7.14941E-03     7.03301E-03
            1131             136     7.14941E-03     7.03301E-03
            1132             136     7.14941E-03     7.03301E-03
            1131             137     7.53304E-03     7.51156E-03
             598             137     7.53304E-03     7.51156E-03
            1130             137     7.53304E-03     7.51156E-03
             597             137     7.53304E-03     7.51156E-03
            1130             138     7.52220E-03     7.33837E-03
             599             138     7.52220E-03     7.33837E-03
            1129             138     7.52220E-03     7.33837E-03
             598             138     7.52220E-03     7.33837E-03
             600             139     7.61633E-03     7.33833E-03
            1128             139     7.61633E-03     7.33833E-03
             599             139     7.61633E-03     7.33833E-03
            1129             139     7.61633E-03     7.33833E-03
            1128             140     7.68513E-03     7.29354E-03
             601             140     7.68513E-03     7.29354E-03
             600             140     7.68513E-03     7.29354E-03
            1127             140     7.68513E-03     7.29354E-03
            1126             141     7.76777E-03     7.26618E-03
            1127             141     7.76777E-03     7.26618E-03
             601             141     7.76777E-03     7.26618E-03
             602             141     7.76777E-03     7.26618E-03
            1125             142     7.85304E-03     7.24143E-03
            1126             142     7.85304E-03     7.24143E-03
             603             142     7.85304E-03     7.24143E-03
             602             142     7.85304E-03     7.24143E-03
             603             143     7.94521E-03     7.22267E-03
            1125             143     7.94521E-03     7.22267E-03
             604             143     7.94521E-03     7.22267E-03
            1124             143     7.94521E-03     7.22267E-03
             605             144     8.04171E-03     7.21072E-03
            1123             144     8.04171E-03     7.21072E-03
             604             144     8.04171E-03     7.21072E-03
            1124             144     8.04171E-03     7.21072E-03
            1122             145     8.14362E-03     7.20247E-03
            1123             145     8.14362E-03     7.20247E-03
             606             145     8.14362E-03     7.20247E-03
             605             145     8.14362E-03     7.20247E-03
             607             146     8.25432E-03     7.20525E-03
            1121             146     8.25432E-03     7.20525E-03
            1122             146     8.25432E-03     7.20525E-03
             606             146     8.25432E-03     7.20525E-03
            1120             147     8.34904E-03     7.19712E-03
            1121             147     8.34904E-03     7.19712E-03
             607             147     8.34904E-03     7.19712E-03
             608             147     8.34904E-03     7.19712E-03
            1120             148     8.52533E-03     7.25088E-03
             608             148     8.52533E-03     7.25088E-03
             609             148     8.52533E-03     7.25088E-03
            1119             148     8.52533E-03     7.25088E-03
             610             149     8.40681E-03     7.09070E-03
            1118             149     8.40681E-03     7.09070E-03
            1119             149     8.40681E-03     7.09070E-03
             609             149     8.40681E-03     7.09070E-03
            1117             150     9.35151E-03     7.78406E-03
            1118             150     9.35151E-03     7.78406E-03
             611             150     9.35151E-03     7.78406E-03
             610             150     9.35151E-03     7.78406E-03
             612             151     6.50084E-03     6.49494E-03
            1117             151     6.50084E-03     6.49494E-03
             611             151     6.50084E-03     6.49494E-03
            1116             151     6.50084E-03     6.49494E-03
            1711             152     675.356E-06     704.179E-06
            1716             152     675.356E-06     704.179E-06
             612             152     675.356E-06     704.179E-06
             629             152     675.356E-06     704.179E-06
             629             153     462.961E-06     438.297E-06
            1721             153     462.961E-06     438.297E-06
             646             153     462.961E-06     438.297E-06
            1716             153     462.961E-06     438.297E-06
            1721             154     225.271E-06     258.869E-06
             646             154     225.271E-06     258.869E-06
            1726             154     225.271E-06     258.869E-06
             663             154     225.271E-06     258.869E-06
            1726             155     162.074E-06     226.911E-06
             663             155     162.074E-06     226.911E-06
            1731             155     162.074E-06     226.911E-06
             680             155     162.074E-06     226.911E-06
             679             156     227.714E-06     249.650E-06
             680             156     227.714E-06     249.650E-06
             678             157     372.216E-06     313.302E-06
             679             157     372.216E-06     313.302E-06
             678             158     428.610E-06     377.060E-06
             677             158     428.610E-06     377.060E-06
             676             159     459.907E-06     408.771E-06
             677             159     459.907E-06     408.771E-06
             676             160     463.315E-06     413.551E-06
             675             160     463.315E-06     413.551E-06
             675             161     460.735E-06     412.832E-06
             674             161     460.735E-06     412.832E-06
             674             162     455.863E-06     410.317E-06
             673             162     455.863E-06     410.317E-06
             673             163     450.273E-06     406.726E-06
             672             163     450.273E-06     406.726E-06
             671             164     444.450E-06     404.135E-06
             672             164     444.450E-06     404.135E-06
             670             165     438.770E-06     401.594E-06
             671             165     438.770E-06     401.594E-06
             670             166     433.179E-06     400.344E-06
             669             166     433.179E-06     400.344E-06
             669             167     427.598E-06     399.236E-06
             668             167     427.598E-06     399.236E-06
             668             168     423.008E-06     400.220E-06
             667             168     423.008E-06     400.220E-06
             666             169     416.886E-06     397.667E-06
             667             169     416.886E-06     397.667E-06
             666             170     408.752E-06     404.841E-06
             665             170     408.752E-06     404.841E-06
             664             171     382.018E-06     421.551E-06
             665             171     382.018E-06     421.551E-06
             664             172     386.453E-06     424.006E-06
             647             172     386.453E-06     424.006E-06
            2455             172     386.453E-06     424.006E-06
            2438             172     386.453E-06     424.006E-06
             647             173     417.655E-06     361.567E-06
            2421             173     417.655E-06     361.567E-06
            2438             173     417.655E-06     361.567E-06
             630             173     417.655E-06     361.567E-06
             630             174     407.674E-06     348.245E-06
            2421             174     407.674E-06     348.245E-06
            2404             174     407.674E-06     348.245E-06
             613             174     407.674E-06     348.245E-06
            2387             175     358.389E-06     390.518E-06
            2404             175     358.389E-06     390.518E-06
             613             175     358.389E-06     390.518E-06
             596             175     358.389E-06     390.518E-06
            1960             176     25.2340E-03     24.9038E-03
             681             176     25.2340E-03     24.9038E-03
            1959             176     25.2340E-03     24.9038E-03
             682             176     25.2340E-03     24.9038E-03
             682             177     22.2211E-03     21.9401E-03
             683             177     22.2211E-03     21.9401E-03
            1958             177     22.2211E-03     21.9401E-03
            1959             177     22.2211E-03     21.9401E-03
             684             178     17.8898E-03     17.5041E-03
            1958             178     17.8898E-03     17.5041E-03
            1957             178     17.8898E-03     17.5041E-03
             683             178     17.8898E-03     17.5041E-03
            1957             179     9.37648E-03     10.5460E-03
            1956             179     9.37648E-03     10.5460E-03
             684             179     9.37648E-03     10.5460E-03
             685             179     9.37648E-03     10.5460E-03
             690             180     675.356E-06     704.179E-06
             685             180     675.356E-06     704.179E-06
            2388             180     675.356E-06     704.179E-06
            2371             180     675.356E-06     704.179E-06
            2405             181     462.961E-06     438.297E-06
            2388             181     462.961E-06     438.297E-06
             690             181     462.961E-06     438.297E-06
             695             181     462.961E-06     438.297E-06
             695             182     225.271E-06     258.869E-06
            2405             182     225.271E-06     258.869E-06
             700             182     225.271E-06     258.869E-06
            2422             182     225.271E-06     258.869E-06
             700             183     162.074E-06     226.911E-06
             705             183     162.074E-06     226.911E-06
            2422             183     162.074E-06     226.911E-06
            2439             183     162.074E-06     226.911E-06
             704             184     220.141E-06     296.269E-06
             705             184     220.141E-06     296.269E-06
             703             185     331.767E-06     347.838E-06
             704             185     331.767E-06     347.838E-06
             703             186     552.512E-06     544.963E-06
             702             186     552.512E-06     544.963E-06
             701             187     692.897E-06     681.474E-06
             702             187     692.897E-06     681.474E-06
            1730             188     744.927E-06     727.690E-06
             696             188     744.927E-06     727.690E-06
            1735             188     744.927E-06     727.690E-06
             701             188     744.927E-06     727.690E-06
            1725             189     745.054E-06     736.667E-06
            1730             189     745.054E-06     736.667E-06
             696             189     745.054E-06     736.667E-06
             691             189     745.054E-06     736.667E-06
             686             190     747.837E-06     740.128E-06
            1720             190     747.837E-06     740.128E-06
            1725             190     747.837E-06     740.128E-06
             691             190     747.837E-06     740.128E-06
             686             191     745.161E-06     724.267E-06
            1720             191     745.161E-06     724.267E-06
            1715             191     745.161E-06     724.267E-06
             681             191     745.161E-06     724.267E-06
            1714             192     23.7202E-03     23.3956E-03
             706             192     23.7202E-03     23.3956E-03
             707             192     23.7202E-03     23.3956E-03
            1715             192     23.7202E-03     23.3956E-03
            1714             193     19.3511E-03     19.0754E-03
            1713             193     19.3511E-03     19.0754E-03
             707             193     19.3511E-03     19.0754E-03
             708             193     19.3511E-03     19.0754E-03
            1712             194     14.0443E-03     13.5508E-03
             708             194     14.0443E-03     13.5508E-03
             709             194     14.0443E-03     13.5508E-03
            1713             194     14.0443E-03     13.5508E-03
             710             195     7.20989E-03     8.20861E-03
            1712             195     7.20989E-03     8.20861E-03
             709             195     7.20989E-03     8.20861E-03
            1711             195     7.20989E-03     8.20861E-03
            1133             196     8.55358E-03     14.8899E-03
             710             196     8.55358E-03     14.8899E-03
            1116             196     8.55358E-03     14.8899E-03
             715             196     8.55358E-03     14.8899E-03
            1150             197     10.0716E-03     14.0724E-03
             715             197     10.0716E-03     14.0724E-03
            1133             197     10.0716E-03     14.0724E-03
             720             197     10.0716E-03     14.0724E-03
             725             198     11.2986E-03     12.9167E-03
             720             198     11.2986E-03     12.9167E-03
            1167             198     11.2986E-03     12.9167E-03
            1150             198     11.2986E-03     12.9167E-03
             725             199     23.3683E-03     22.8217E-03
            1167             199     23.3683E-03     22.8217E-03
             730             199     23.3683E-03     22.8217E-03
            1184             199     23.3683E-03     22.8217E-03
            1184             200     34.5507E-03     35.8546E-03
             735             200     34.5507E-03     35.8546E-03
            1201             200     34.5507E-03     35.8546E-03
             730             200     34.5507E-03     35.8546E-03
            1218             201     48.1432E-03     47.1687E-03
             735             201     48.1432E-03     47.1687E-03
            1201             201     48.1432E-03     47.1687E-03
             740             201     48.1432E-03     47.1687E-03
            1235             202     60.3458E-03     60.9577E-03
             745             202     60.3458E-03     60.9577E-03
             740             202     60.3458E-03     60.9577E-03
            1218             202     60.3458E-03     60.9577E-03
            1252             203     53.8070E-03     57.5760E-03
             745             203     53.8070E-03     57.5760E-03
             750             203     53.8070E-03     57.5760E-03
            1235             203     53.8070E-03     57.5760E-03
            1269             204     51.6921E-03     49.0599E-03
             750             204     51.6921E-03     49.0599E-03
             755             204     51.6921E-03     49.0599E-03
            1252             204     51.6921E-03     49.0599E-03
            1286             205     62.0218E-03     62.5118E-03
             760             205     62.0218E-03     62.5118E-03
            1269             205     62.0218E-03     62.5118E-03
             755             205     62.0218E-03     62.5118E-03
            1303             206     73.8583E-03     73.1147E-03
            1286             206     73.8583E-03     73.1147E-03
             760             206     73.8583E-03     73.1147E-03
             765             206     73.8583E-03     73.1147E-03
            1320             207     82.9662E-03     85.7445E-03
            1303             207     82.9662E-03     85.7445E-03
             765             207     82.9662E-03     85.7445E-03
             770             207     82.9662E-03     85.7445E-03
             770             208     97.1914E-03     95.6826E-03
             775             208     97.1914E-03     95.6826E-03
            1337             208     97.1914E-03     95.6826E-03
            1320             208     97.1914E-03     95.6826E-03
             775             209     108.944E-03     108.750E-03
            1354             209     108.944E-03     108.750E-03
             780             209     108.944E-03     108.750E-03
            1337             209     108.944E-03     108.750E-03
            1354             210     99.9541E-03     106.465E-03
             780             210     99.9541E-03     106.465E-03
            1371             210     99.9541E-03     106.465E-03
             785             210     99.9541E-03     106.465E-03
            1388             211     98.7104E-03     96.4999E-03
            1371             211     98.7104E-03     96.4999E-03
             785             211     98.7104E-03     96.4999E-03
             790             211     98.7104E-03     96.4999E-03
            1405             212     110.542E-03     108.065E-03
             790             212     110.542E-03     108.065E-03
            1388             212     110.542E-03     108.065E-03
             795             212     110.542E-03     108.065E-03
             800             213     118.002E-03     122.900E-03
            1405             213     118.002E-03     122.900E-03
            1422             213     118.002E-03     122.900E-03
             795             213     118.002E-03     122.900E-03
            1422             214     133.965E-03     131.167E-03
            1439             214     133.965E-03     131.167E-03
             805             214     133.965E-03     131.167E-03
             800             214     133.965E-03     131.167E-03
             805             215     145.347E-03     144.833E-03
             810             215     145.347E-03     144.833E-03
            1439             215     145.347E-03     144.833E-03
            1456             215     145.347E-03     144.833E-03
             810             216     136.385E-03     145.322E-03
             815             216     136.385E-03     145.322E-03
            1456             216     136.385E-03     145.322E-03
            1473             216     136.385E-03     145.322E-03
            1490             217     138.367E-03     134.167E-03
             815             217     138.367E-03     134.167E-03
            1473             217     138.367E-03     134.167E-03
             820             217     138.367E-03     134.167E-03
             820             218     147.008E-03     146.913E-03
            1490             218     147.008E-03     146.913E-03
            1507             218     147.008E-03     146.913E-03
             825             218     147.008E-03     146.913E-03
            1524             219     156.450E-03     157.022E-03
            1507             219     156.450E-03     157.022E-03
             825             219     156.450E-03     157.022E-03
             830             219     156.450E-03     157.022E-03
            1524             220     164.880E-03     168.713E-03
             830             220     164.880E-03     168.713E-03
            1541             220     164.880E-03     168.713E-03
             835             220     164.880E-03     168.713E-03
            1541             221     179.524E-03     177.575E-03
            1558             221     179.524E-03     177.575E-03
             840             221     179.524E-03     177.575E-03
             835             221     179.524E-03     177.575E-03
             840             222     191.243E-03     189.381E-03
             845             222     191.243E-03     189.381E-03
            1558             222     191.243E-03     189.381E-03
            1575             222     191.243E-03     189.381E-03
             845             223     179.211E-03     190.769E-03
            1592             223     179.211E-03     190.769E-03
             850             223     179.211E-03     190.769E-03
            1575             223     179.211E-03     190.769E-03
            1592             224     181.239E-03     178.120E-03
            1609             224     181.239E-03     178.120E-03
             850             224     181.239E-03     178.120E-03
             855             224     181.239E-03     178.120E-03
            1626             225     192.158E-03     187.928E-03
            1609             225     192.158E-03     187.928E-03
             860             225     192.158E-03     187.928E-03
             855             225     192.158E-03     187.928E-03
             865             226     195.802E-03     203.981E-03
            1643             226     195.802E-03     203.981E-03
             860             226     195.802E-03     203.981E-03
            1626             226     195.802E-03     203.981E-03
             865             227     213.657E-03     209.124E-03
            1660             227     213.657E-03     209.124E-03
            1643             227     213.657E-03     209.124E-03
             870             227     213.657E-03     209.124E-03
            1677             228     223.984E-03     222.466E-03
            1660             228     223.984E-03     222.466E-03
             875             228     223.984E-03     222.466E-03
             870             228     223.984E-03     222.466E-03
            1694             229     211.491E-03     222.922E-03
            1677             229     211.491E-03     222.922E-03
             875             229     211.491E-03     222.922E-03
             880             229     211.491E-03     222.922E-03
             880             230     222.319E-03     235.697E-03
            2799             230     222.319E-03     235.697E-03
             879             230     222.319E-03     235.697E-03
            2800             230     222.319E-03     235.697E-03
             879             231     190.349E-03     210.338E-03
            2798             231     190.349E-03     210.338E-03
            2799             231     190.349E-03     210.338E-03
             878             231     190.349E-03     210.338E-03
             878             232     149.843E-03     164.227E-03
            2798             232     149.843E-03     164.227E-03
             877             232     149.843E-03     164.227E-03
            2797             232     149.843E-03     164.227E-03
            2796             233     106.605E-03     114.129E-03
            2797             233     106.605E-03     114.129E-03
             876             233     106.605E-03     114.129E-03
             877             233     106.605E-03     114.129E-03
             876             234     46.9842E-03     47.0844E-03
            2125             234     46.9842E-03     47.0844E-03
             871             234     46.9842E-03     47.0844E-03
            2130             234     46.9842E-03     47.0844E-03
             866             235     55.9540E-03     54.2984E-03
            2125             235     55.9540E-03     54.2984E-03
            2120             235     55.9540E-03     54.2984E-03
             871             235     55.9540E-03     54.2984E-03
            2115             236     56.6019E-03     58.5044E-03
             861             236     56.6019E-03     58.5044E-03
             866             236     56.6019E-03     58.5044E-03
            2120             236     56.6019E-03     58.5044E-03
             856             237     55.6152E-03     58.0557E-03
            2110             237     55.6152E-03     58.0557E-03
             861             237     55.6152E-03     58.0557E-03
            2115             237     55.6152E-03     58.0557E-03
             856             238     57.2665E-03     54.1286E-03
             851             238     57.2665E-03     54.1286E-03
            2110             238     57.2665E-03     54.1286E-03
            2105             238     57.2665E-03     54.1286E-03
            2105             239     54.9852E-03     54.2746E-03
            2100             239     54.9852E-03     54.2746E-03
             846             239     54.9852E-03     54.2746E-03
             851             239     54.9852E-03     54.2746E-03
            2100             240     52.3726E-03     53.4742E-03
            2095             240     52.3726E-03     53.4742E-03
             846             240     52.3726E-03     53.4742E-03
             841             240     52.3726E-03     53.4742E-03
             836             241     54.5891E-03     53.3453E-03
            2090             241     54.5891E-03     53.3453E-03
             841             241     54.5891E-03     53.3453E-03
            2095             241     54.5891E-03     53.3453E-03
            2090             242     54.9430E-03     57.0547E-03
            2085             242     54.9430E-03     57.0547E-03
             831             242     54.9430E-03     57.0547E-03
             836             242     54.9430E-03     57.0547E-03
             831             243     53.6857E-03     55.9572E-03
            2080             243     53.6857E-03     55.9572E-03
            2085             243     53.6857E-03     55.9572E-03
             826             243     53.6857E-03     55.9572E-03
            2075             244     55.1899E-03     53.6758E-03
            2080             244     55.1899E-03     53.6758E-03
             821             244     55.1899E-03     53.6758E-03
             826             244     55.1899E-03     53.6758E-03
            2075             245     54.1602E-03     51.5526E-03
             821             245     54.1602E-03     51.5526E-03
            2070             245     54.1602E-03     51.5526E-03
             816             245     54.1602E-03     51.5526E-03
             816             246     52.5301E-03     51.3954E-03
             811             246     52.5301E-03     51.3954E-03
            2070             246     52.5301E-03     51.3954E-03
            2065             246     52.5301E-03     51.3954E-03
             811             247     51.1101E-03     51.3361E-03
            2065             247     51.1101E-03     51.3361E-03
             806             247     51.1101E-03     51.3361E-03
            2060             247     51.1101E-03     51.3361E-03
             806             248     52.4392E-03     51.2344E-03
            2055             248     52.4392E-03     51.2344E-03
            2060             248     52.4392E-03     51.2344E-03
             801             248     52.4392E-03     51.2344E-03
            2055             249     52.5510E-03     53.8355E-03
             801             249     52.5510E-03     53.8355E-03
             796             249     52.5510E-03     53.8355E-03
            2050             249     52.5510E-03     53.8355E-03
            2045             250     51.9094E-03     52.8961E-03
            2050             250     51.9094E-03     52.8961E-03
             796             250     51.9094E-03     52.8961E-03
             791             250     51.9094E-03     52.8961E-03
             786             251     52.8785E-03     50.7558E-03
            2040             251     52.8785E-03     50.7558E-03
             791             251     52.8785E-03     50.7558E-03
            2045             251     52.8785E-03     50.7558E-03
            2035             252     51.6148E-03     51.0789E-03
            2040             252     51.6148E-03     51.0789E-03
             781             252     51.6148E-03     51.0789E-03
             786             252     51.6148E-03     51.0789E-03
            2035             253     50.7566E-03     50.7381E-03
             776             253     50.7566E-03     50.7381E-03
             781             253     50.7566E-03     50.7381E-03
            2030             253     50.7566E-03     50.7381E-03
             776             254     52.2091E-03     51.2666E-03
             771             254     52.2091E-03     51.2666E-03
            2025             254     52.2091E-03     51.2666E-03
            2030             254     52.2091E-03     51.2666E-03
             766             255     52.0959E-03     53.2644E-03
            2020             255     52.0959E-03     53.2644E-03
             771             255     52.0959E-03     53.2644E-03
            2025             255     52.0959E-03     53.2644E-03
             766             256     51.2165E-03     52.1599E-03
             761             256     51.2165E-03     52.1599E-03
            2015             256     51.2165E-03     52.1599E-03
            2020             256     51.2165E-03     52.1599E-03
            2010             257     52.0065E-03     50.8609E-03
            2015             257     52.0065E-03     50.8609E-03
             761             257     52.0065E-03     50.8609E-03
             756             257     52.0065E-03     50.8609E-03
            2010             258     51.5758E-03     50.2395E-03
             756             258     51.5758E-03     50.2395E-03
             751             258     51.5758E-03     50.2395E-03
            2005             258     51.5758E-03     50.2395E-03
             751             259     50.9873E-03     50.1450E-03
             746             259     50.9873E-03     50.1450E-03
            2005             259     50.9873E-03     50.1450E-03
            2000             259     50.9873E-03     50.1450E-03
             741             260     50.7786E-03     50.2270E-03
             746             260     50.7786E-03     50.2270E-03
            2000             260     50.7786E-03     50.2270E-03
            1995             260     50.7786E-03     50.2270E-03
             736             261     51.6527E-03     50.8460E-03
            1990             261     51.6527E-03     50.8460E-03
             741             261     51.6527E-03     50.8460E-03
            1995             261     51.6527E-03     50.8460E-03
             731             262     51.7057E-03     51.9074E-03
            1990             262     51.7057E-03     51.9074E-03
            1985             262     51.7057E-03     51.9074E-03
             736             262     51.7057E-03     51.9074E-03
            1985             263     51.2476E-03     51.3167E-03
             726             263     51.2476E-03     51.3167E-03
            1980             263     51.2476E-03     51.3167E-03
             731             263     51.2476E-03     51.3167E-03
            1975             264     51.7810E-03     50.9443E-03
            1980             264     51.7810E-03     50.9443E-03
             721             264     51.7810E-03     50.9443E-03
             726             264     51.7810E-03     50.9443E-03
             721             265     51.3697E-03     50.7758E-03
            1975             265     51.3697E-03     50.7758E-03
             716             265     51.3697E-03     50.7758E-03
            1970             265     51.3697E-03     50.7758E-03
             711             266     50.1971E-03     49.7006E-03
            1965             266     50.1971E-03     49.7006E-03
            1970             266     50.1971E-03     49.7006E-03
             716             266     50.1971E-03     49.7006E-03
            1960             267     50.0447E-03     49.4350E-03
             706             267     50.0447E-03     49.4350E-03
            1965             267     50.0447E-03     49.4350E-03
             711             267     50.0447E-03     49.4350E-03
            1047             318     210.822E-03     204.744E-03
            1736             318     210.822E-03     204.744E-03
            1741             318     210.822E-03     204.744E-03
            1064             318     210.822E-03     204.744E-03
            1746             319     216.914E-03     220.727E-03
            1081             319     216.914E-03     220.727E-03
            1064             319     216.914E-03     220.727E-03
            1741             319     216.914E-03     220.727E-03
            1098             320     230.903E-03     230.300E-03
            1751             320     230.903E-03     230.300E-03
            1081             320     230.903E-03     230.300E-03
            1746             320     230.903E-03     230.300E-03
            1751             321     244.539E-03     240.475E-03
            1756             321     244.539E-03     240.475E-03
            1098             321     244.539E-03     240.475E-03
            1115             321     244.539E-03     240.475E-03
            1861             328     214.967E-03     220.538E-03
            1114             328     214.967E-03     220.538E-03
            1115             328     214.967E-03     220.538E-03
            1862             328     214.967E-03     220.538E-03
            1861             329     197.434E-03     200.692E-03
            1114             329     197.434E-03     200.692E-03
            1113             329     197.434E-03     200.692E-03
            1860             329     197.434E-03     200.692E-03
            1113             330     184.010E-03     186.849E-03
            1860             330     184.010E-03     186.849E-03
            1112             330     184.010E-03     186.849E-03
            1859             330     184.010E-03     186.849E-03
            1111             331     170.910E-03     173.384E-03
            1112             331     170.910E-03     173.384E-03
            1859             331     170.910E-03     173.384E-03
            1858             331     170.910E-03     173.384E-03
            1110             332     158.156E-03     159.921E-03
            1857             332     158.156E-03     159.921E-03
            1858             332     158.156E-03     159.921E-03
            1111             332     158.156E-03     159.921E-03
            1109             333     145.226E-03     146.307E-03
            1857             333     145.226E-03     146.307E-03
            1110             333     145.226E-03     146.307E-03
            1856             333     145.226E-03     146.307E-03
            1856             334     132.289E-03     132.542E-03
            1108             334     132.289E-03     132.542E-03
            1855             334     132.289E-03     132.542E-03
            1109             334     132.289E-03     132.542E-03
            1107             335     119.212E-03     118.688E-03
            1855             335     119.212E-03     118.688E-03
            1854             335     119.212E-03     118.688E-03
            1108             335     119.212E-03     118.688E-03
            1107             336     106.111E-03     104.765E-03
            1854             336     106.111E-03     104.765E-03
            1106             336     106.111E-03     104.765E-03
            1853             336     106.111E-03     104.765E-03
            1853             337     92.9469E-03     90.8300E-03
            1852             337     92.9469E-03     90.8300E-03
            1105             337     92.9469E-03     90.8300E-03
            1106             337     92.9469E-03     90.8300E-03
            1105             338     79.7868E-03     76.8702E-03
            1852             338     79.7868E-03     76.8702E-03
            1104             338     79.7868E-03     76.8702E-03
            1851             338     79.7868E-03     76.8702E-03
            1851             339     66.5882E-03     62.9432E-03
            1104             339     66.5882E-03     62.9432E-03
            1850             339     66.5882E-03     62.9432E-03
            1103             339     66.5882E-03     62.9432E-03
            1103             340     53.3486E-03     48.9897E-03
            1849             340     53.3486E-03     48.9897E-03
            1850             340     53.3486E-03     48.9897E-03
            1102             340     53.3486E-03     48.9897E-03
            1849             341     39.5285E-03     34.6700E-03
            1102             341     39.5285E-03     34.6700E-03
            1848             341     39.5285E-03     34.6700E-03
            1101             341     39.5285E-03     34.6700E-03
            1101             342     25.0955E-03     21.8361E-03
            1848             342     25.0955E-03     21.8361E-03
            1100             342     25.0955E-03     21.8361E-03
            1847             342     25.0955E-03     21.8361E-03
            1846             343     18.3729E-03     25.4814E-03
            1847             343     18.3729E-03     25.4814E-03
            1099             343     18.3729E-03     25.4814E-03
            1100             343     18.3729E-03     25.4814E-03
            1099             344     64.8414E-03     75.1017E-03
            1828             344     64.8414E-03     75.1017E-03
            1082             344     64.8414E-03     75.1017E-03
            1845             344     64.8414E-03     75.1017E-03
            1082             345     57.4486E-03     53.4048E-03
            1065             345     57.4486E-03     53.4048E-03
            1811             345     57.4486E-03     53.4048E-03
            1828             345     57.4486E-03     53.4048E-03
            1794             346     52.0202E-03     46.8233E-03
            1048             346     52.0202E-03     46.8233E-03
            1065             346     52.0202E-03     46.8233E-03
            1811             346     52.0202E-03     46.8233E-03
            1048             347     57.0726E-03     61.4157E-03
            1777             347     57.0726E-03     61.4157E-03
            1794             347     57.0726E-03     61.4157E-03
            1031             347     57.0726E-03     61.4157E-03
            1777             348     44.9436E-03     41.9842E-03
            1776             348     44.9436E-03     41.9842E-03
            1710             348     44.9436E-03     41.9842E-03
            1709             348     44.9436E-03     41.9842E-03
            1776             349     45.1344E-03     48.7146E-03
            1709             349     45.1344E-03     48.7146E-03
            1708             349     45.1344E-03     48.7146E-03
            1775             349     45.1344E-03     48.7146E-03
            1775             350     54.4368E-03     60.3087E-03
            1774             350     54.4368E-03     60.3087E-03
            1707             350     54.4368E-03     60.3087E-03
            1708             350     54.4368E-03     60.3087E-03
            1773             351     65.3753E-03     72.3742E-03
            1706             351     65.3753E-03     72.3742E-03
            1707             351     65.3753E-03     72.3742E-03
            1774             351     65.3753E-03     72.3742E-03
            1773             352     76.0186E-03     83.4446E-03
            1705             352     76.0186E-03     83.4446E-03
            1772             352     76.0186E-03     83.4446E-03
            1706             352     76.0186E-03     83.4446E-03
            1772             353     87.2786E-03     94.7026E-03
            1705             353     87.2786E-03     94.7026E-03
            1771             353     87.2786E-03     94.7026E-03
            1704             353     87.2786E-03     94.7026E-03
            1771             354     99.0082E-03     106.274E-03
            1703             354     99.0082E-03     106.274E-03
            1704             354     99.0082E-03     106.274E-03
            1770             354     99.0082E-03     106.274E-03
            1770             355     111.219E-03     118.163E-03
            1702             355     111.219E-03     118.163E-03
            1703             355     111.219E-03     118.163E-03
            1769             355     111.219E-03     118.163E-03
            1702             356     123.852E-03     130.352E-03
            1769             356     123.852E-03     130.352E-03
            1701             356     123.852E-03     130.352E-03
            1768             356     123.852E-03     130.352E-03
            1700             357     136.818E-03     142.795E-03
            1767             357     136.818E-03     142.795E-03
            1768             357     136.818E-03     142.795E-03
            1701             357     136.818E-03     142.795E-03
            1767             358     150.136E-03     155.507E-03
            1700             358     150.136E-03     155.507E-03
            1699             358     150.136E-03     155.507E-03
            1766             358     150.136E-03     155.507E-03
            1699             359     163.754E-03     168.471E-03
            1698             359     163.754E-03     168.471E-03
            1766             359     163.754E-03     168.471E-03
            1765             359     163.754E-03     168.471E-03
            1765             360     177.874E-03     181.788E-03
            1698             360     177.874E-03     181.788E-03
            1697             360     177.874E-03     181.788E-03
            1764             360     177.874E-03     181.788E-03
            1764             361     192.251E-03     195.347E-03
            1696             361     192.251E-03     195.347E-03
            1697             361     192.251E-03     195.347E-03
            1763             361     192.251E-03     195.347E-03
            1762             362     207.059E-03     209.046E-03
            1695             362     207.059E-03     209.046E-03
            1696             362     207.059E-03     209.046E-03
            1763             362     207.059E-03     209.046E-03
            1762             363     221.326E-03     222.526E-03
            1761             363     221.326E-03     222.526E-03
            1695             363     221.326E-03     222.526E-03
            1694             363     221.326E-03     222.526E-03
            1735             364     692.897E-06     681.474E-06
            1734             364     692.897E-06     681.474E-06
            1734             365     552.512E-06     544.963E-06
            1733             365     552.512E-06     544.963E-06
            1733             366     331.767E-06     347.838E-06
            1732             366     331.767E-06     347.838E-06
            1731             367     220.141E-06     296.269E-06
            1732             367     220.141E-06     296.269E-06
            2127             368     180.606E-03     195.168E-03
            2126             368     180.606E-03     195.168E-03
            1737             368     180.606E-03     195.168E-03
            1736             368     180.606E-03     195.168E-03
            1737             369     149.908E-03     165.430E-03
            2128             369     149.908E-03     165.430E-03
            1738             369     149.908E-03     165.430E-03
            2127             369     149.908E-03     165.430E-03
            2128             370     110.271E-03     117.726E-03
            2129             370     110.271E-03     117.726E-03
            1738             370     110.271E-03     117.726E-03
            1739             370     110.271E-03     117.726E-03
            2130             371     75.8394E-03     78.5828E-03
            1739             371     75.8394E-03     78.5828E-03
            2129             371     75.8394E-03     78.5828E-03
            1740             371     75.8394E-03     78.5828E-03
            2796             372     104.816E-03     106.596E-03
            1740             372     104.816E-03     106.596E-03
            2801             372     104.816E-03     106.596E-03
            1745             372     104.816E-03     106.596E-03
            1745             373     103.410E-03     104.500E-03
            2801             373     103.410E-03     104.500E-03
            2806             373     103.410E-03     104.500E-03
            1750             373     103.410E-03     104.500E-03
            2811             374     103.938E-03     106.854E-03
            1755             374     103.938E-03     106.854E-03
            2806             374     103.938E-03     106.854E-03
            1750             374     103.938E-03     106.854E-03
            1755             375     102.757E-03     102.351E-03
            1760             375     102.757E-03     102.351E-03
            2811             375     102.757E-03     102.351E-03
            2816             375     102.757E-03     102.351E-03
            2255             376     107.063E-03     113.670E-03
            2254             376     107.063E-03     113.670E-03
            1759             376     107.063E-03     113.670E-03
            1760             376     107.063E-03     113.670E-03
            2253             377     146.143E-03     161.820E-03
            2254             377     146.143E-03     161.820E-03
            1758             377     146.143E-03     161.820E-03
            1759             377     146.143E-03     161.820E-03
            1758             378     183.640E-03     209.756E-03
            2253             378     183.640E-03     209.756E-03
            2252             378     183.640E-03     209.756E-03
            1757             378     183.640E-03     209.756E-03
            2251             379     215.867E-03     241.006E-03
            1756             379     215.867E-03     241.006E-03
            1757             379     215.867E-03     241.006E-03
            2252             379     215.867E-03     241.006E-03
            1845             380     66.9046E-03     68.4695E-03
            1844             380     66.9046E-03     68.4695E-03
            2726             380     66.9046E-03     68.4695E-03
            2727             380     66.9046E-03     68.4695E-03
            1843             381     77.1025E-03     78.3350E-03
            2726             381     77.1025E-03     78.3350E-03
            1844             381     77.1025E-03     78.3350E-03
            2725             381     77.1025E-03     78.3350E-03
            2725             382     86.6488E-03     87.1343E-03
            1843             382     86.6488E-03     87.1343E-03
            2724             382     86.6488E-03     87.1343E-03
            1842             382     86.6488E-03     87.1343E-03
            2724             383     96.4246E-03     96.7589E-03
            2723             383     96.4246E-03     96.7589E-03
            1841             383     96.4246E-03     96.7589E-03
            1842             383     96.4246E-03     96.7589E-03
            2723             384     105.876E-03     106.087E-03
            1841             384     105.876E-03     106.087E-03
            1840             384     105.876E-03     106.087E-03
            2722             384     105.876E-03     106.087E-03
            2722             385     115.454E-03     115.743E-03
            2721             385     115.454E-03     115.743E-03
            1839             385     115.454E-03     115.743E-03
            1840             385     115.454E-03     115.743E-03
            2720             386     125.254E-03     125.755E-03
            1838             386     125.254E-03     125.755E-03
            1839             386     125.254E-03     125.755E-03
            2721             386     125.254E-03     125.755E-03
            1838             387     135.267E-03     136.101E-03
            2720             387     135.267E-03     136.101E-03
            1837             387     135.267E-03     136.101E-03
            2719             387     135.267E-03     136.101E-03
            2718             388     145.389E-03     146.671E-03
            2719             388     145.389E-03     146.671E-03
            1836             388     145.389E-03     146.671E-03
            1837             388     145.389E-03     146.671E-03
            2717             389     155.615E-03     157.398E-03
            1836             389     155.615E-03     157.398E-03
            1835             389     155.615E-03     157.398E-03
            2718             389     155.615E-03     157.398E-03
            1834             390     165.693E-03     168.086E-03
            1835             390     165.693E-03     168.086E-03
            2716             390     165.693E-03     168.086E-03
            2717             390     165.693E-03     168.086E-03
            2715             391     175.757E-03     178.625E-03
            1834             391     175.757E-03     178.625E-03
            1833             391     175.757E-03     178.625E-03
            2716             391     175.757E-03     178.625E-03
            1833             392     185.329E-03     188.861E-03
            1832             392     185.329E-03     188.861E-03
            2715             392     185.329E-03     188.861E-03
            2714             392     185.329E-03     188.861E-03
            2714             393     195.079E-03     198.740E-03
            2713             393     195.079E-03     198.740E-03
            1831             393     195.079E-03     198.740E-03
            1832             393     195.079E-03     198.740E-03
            1831             394     204.165E-03     208.341E-03
            2712             394     204.165E-03     208.341E-03
            1830             394     204.165E-03     208.341E-03
            2713             394     204.165E-03     208.341E-03
            2711             395     216.857E-03     224.672E-03
            1830             395     216.857E-03     224.672E-03
            1829             395     216.857E-03     224.672E-03
            2712             395     216.857E-03     224.672E-03
            2815             396     251.711E-03     253.427E-03
            2820             396     251.711E-03     253.427E-03
            1812             396     251.711E-03     253.427E-03
            1829             396     251.711E-03     253.427E-03
            2815             397     254.806E-03     255.116E-03
            1812             397     254.806E-03     255.116E-03
            1795             397     254.806E-03     255.116E-03
            2810             397     254.806E-03     255.116E-03
            2805             398     256.943E-03     259.638E-03
            1778             398     256.943E-03     259.638E-03
            2810             398     256.943E-03     259.638E-03
            1795             398     256.943E-03     259.638E-03
            2805             399     264.726E-03     256.325E-03
            1778             399     264.726E-03     256.325E-03
            2800             399     264.726E-03     256.325E-03
            1761             399     264.726E-03     256.325E-03
            1862             400     226.523E-03     243.770E-03
            1879             400     226.523E-03     243.770E-03
            2251             400     226.523E-03     243.770E-03
            2256             400     226.523E-03     243.770E-03
            1896             401     230.208E-03     233.120E-03
            1879             401     230.208E-03     233.120E-03
            2261             401     230.208E-03     233.120E-03
            2256             401     230.208E-03     233.120E-03
            2261             402     201.043E-03     192.933E-03
            2266             402     201.043E-03     192.933E-03
            1896             402     201.043E-03     192.933E-03
            1913             402     201.043E-03     192.933E-03
            1930             403     159.808E-03     160.157E-03
            2266             403     159.808E-03     160.157E-03
            2271             403     159.808E-03     160.157E-03
            1913             403     159.808E-03     160.157E-03
            3071             404     148.271E-03     154.186E-03
            1929             404     148.271E-03     154.186E-03
            3072             404     148.271E-03     154.186E-03
            1930             404     148.271E-03     154.186E-03
            3070             405     144.814E-03     150.825E-03
            1928             405     144.814E-03     150.825E-03
            1929             405     144.814E-03     150.825E-03
            3071             405     144.814E-03     150.825E-03
            1928             406     138.840E-03     144.900E-03
            1927             406     138.840E-03     144.900E-03
            3069             406     138.840E-03     144.900E-03
            3070             406     138.840E-03     144.900E-03
            1926             407     129.335E-03     135.440E-03
            3069             407     129.335E-03     135.440E-03
            1927             407     129.335E-03     135.440E-03
            3068             407     129.335E-03     135.440E-03
            1926             408     119.523E-03     125.621E-03
            3067             408     119.523E-03     125.621E-03
            3068             408     119.523E-03     125.621E-03
            1925             408     119.523E-03     125.621E-03
            1925             409     109.655E-03     115.852E-03
            3067             409     109.655E-03     115.852E-03
            3066             409     109.655E-03     115.852E-03
            1924             409     109.655E-03     115.852E-03
            1923             410     99.7750E-03     105.814E-03
            3066             410     99.7750E-03     105.814E-03
            3065             410     99.7750E-03     105.814E-03
            1924             410     99.7750E-03     105.814E-03
            1922             411     89.9115E-03     95.9843E-03
            3064             411     89.9115E-03     95.9843E-03
            1923             411     89.9115E-03     95.9843E-03
            3065             411     89.9115E-03     95.9843E-03
            1922             412     80.1822E-03     86.1140E-03
            1921             412     80.1822E-03     86.1140E-03
            3064             412     80.1822E-03     86.1140E-03
            3063             412     80.1822E-03     86.1140E-03
            3062             413     70.6308E-03     76.4946E-03
            1920             413     70.6308E-03     76.4946E-03
            3063             413     70.6308E-03     76.4946E-03
            1921             413     70.6308E-03     76.4946E-03
            1919             414     61.4290E-03     67.0820E-03
            1920             414     61.4290E-03     67.0820E-03
            3061             414     61.4290E-03     67.0820E-03
            3062             414     61.4290E-03     67.0820E-03
            3060             415     52.7203E-03     58.0987E-03
            1919             415     52.7203E-03     58.0987E-03
            3061             415     52.7203E-03     58.0987E-03
            1918             415     52.7203E-03     58.0987E-03
            1917             416     44.8938E-03     49.7707E-03
            1918             416     44.8938E-03     49.7707E-03
            3059             416     44.8938E-03     49.7707E-03
            3060             416     44.8938E-03     49.7707E-03
            3059             417     38.3171E-03     42.1660E-03
            1916             417     38.3171E-03     42.1660E-03
            3058             417     38.3171E-03     42.1660E-03
            1917             417     38.3171E-03     42.1660E-03
            1916             418     33.9374E-03     36.5313E-03
            3057             418     33.9374E-03     36.5313E-03
            1915             418     33.9374E-03     36.5313E-03
            3058             418     33.9374E-03     36.5313E-03
            1914             419     30.9594E-03     32.7393E-03
            3056             419     30.9594E-03     32.7393E-03
            1915             419     30.9594E-03     32.7393E-03
            3057             419     30.9594E-03     32.7393E-03
            2778             420     29.5158E-03     32.2133E-03
            2795             420     29.5158E-03     32.2133E-03
            1914             420     29.5158E-03     32.2133E-03
            1897             420     29.5158E-03     32.2133E-03
            1880             421     26.6794E-03     24.6438E-03
            2778             421     26.6794E-03     24.6438E-03
            1897             421     26.6794E-03     24.6438E-03
            2761             421     26.6794E-03     24.6438E-03
            1880             422     21.7693E-03     21.2008E-03
            2744             422     21.7693E-03     21.2008E-03
            2761             422     21.7693E-03     21.2008E-03
            1863             422     21.7693E-03     21.2008E-03
            1846             423     15.8089E-03     17.9528E-03
            2744             423     15.8089E-03     17.9528E-03
            1863             423     15.8089E-03     17.9528E-03
            2727             423     15.8089E-03     17.9528E-03
            2817             424     111.753E-03     111.024E-03
            1931             424     111.753E-03     111.024E-03
            1932             424     111.753E-03     111.024E-03
            2816             424     111.753E-03     111.024E-03
            1932             425     154.289E-03     158.579E-03
            2817             425     154.289E-03     158.579E-03
            1933             425     154.289E-03     158.579E-03
            2818             425     154.289E-03     158.579E-03
            2819             426     189.908E-03     205.929E-03
            1933             426     189.908E-03     205.929E-03
            2818             426     189.908E-03     205.929E-03
            1934             426     189.908E-03     205.929E-03
            2819             427     212.786E-03     236.064E-03
            2820             427     212.786E-03     236.064E-03
            1935             427     212.786E-03     236.064E-03
            1934             427     212.786E-03     236.064E-03
            2711             428     216.658E-03     234.065E-03
            2728             428     216.658E-03     234.065E-03
            1935             428     216.658E-03     234.065E-03
            1940             428     216.658E-03     234.065E-03
            1945             429     219.888E-03     223.475E-03
            1940             429     219.888E-03     223.475E-03
            2745             429     219.888E-03     223.475E-03
            2728             429     219.888E-03     223.475E-03
            2762             430     193.425E-03     185.408E-03
            1945             430     193.425E-03     185.408E-03
            1950             430     193.425E-03     185.408E-03
            2745             430     193.425E-03     185.408E-03
            1955             431     155.449E-03     155.100E-03
            2779             431     155.449E-03     155.100E-03
            1950             431     155.449E-03     155.100E-03
            2762             431     155.449E-03     155.100E-03
            1955             432     142.706E-03     152.192E-03
            1954             432     142.706E-03     152.192E-03
            2279             432     142.706E-03     152.192E-03
            2280             432     142.706E-03     152.192E-03
            1953             433     135.402E-03     145.313E-03
            2279             433     135.402E-03     145.313E-03
            1954             433     135.402E-03     145.313E-03
            2278             433     135.402E-03     145.313E-03
            2278             434     125.898E-03     131.201E-03
            2277             434     125.898E-03     131.201E-03
            1953             434     125.898E-03     131.201E-03
            1952             434     125.898E-03     131.201E-03
            1951             435     119.812E-03     120.696E-03
            2277             435     119.812E-03     120.696E-03
            1952             435     119.812E-03     120.696E-03
            2276             435     119.812E-03     120.696E-03
            1951             436     124.015E-03     126.492E-03
            1946             436     124.015E-03     126.492E-03
            2275             436     124.015E-03     126.492E-03
            2270             436     124.015E-03     126.492E-03
            2265             437     126.665E-03     125.993E-03
            1941             437     126.665E-03     125.993E-03
            1946             437     126.665E-03     125.993E-03
            2270             437     126.665E-03     125.993E-03
            1941             438     126.621E-03     122.461E-03
            1936             438     126.621E-03     122.461E-03
            2260             438     126.621E-03     122.461E-03
            2265             438     126.621E-03     122.461E-03
            1931             439     102.075E-03     100.614E-03
            2255             439     102.075E-03     100.614E-03
            1936             439     102.075E-03     100.614E-03
            2260             439     102.075E-03     100.614E-03
            2275             448     119.520E-03     120.913E-03
            2274             448     119.520E-03     120.913E-03
            2840             448     119.520E-03     120.913E-03
            2839             448     119.520E-03     120.913E-03
            2838             449     126.247E-03     132.287E-03
            2839             449     126.247E-03     132.287E-03
            2273             449     126.247E-03     132.287E-03
            2274             449     126.247E-03     132.287E-03
            2837             450     136.707E-03     147.575E-03
            2838             450     136.707E-03     147.575E-03
            2272             450     136.707E-03     147.575E-03
            2273             450     136.707E-03     147.575E-03
            2271             451     145.946E-03     156.396E-03
            2272             451     145.946E-03     156.396E-03
            2836             451     145.946E-03     156.396E-03
            2837             451     145.946E-03     156.396E-03
            2456             452     134.504E-03     136.722E-03
            2280             452     134.504E-03     136.722E-03
            2285             452     134.504E-03     136.722E-03
            2473             452     134.504E-03     136.722E-03
            2473             453     135.165E-03     139.520E-03
            2490             453     135.165E-03     139.520E-03
            2290             453     135.165E-03     139.520E-03
            2285             453     135.165E-03     139.520E-03
            2290             454     146.301E-03     148.910E-03
            2295             454     146.301E-03     148.910E-03
            2507             454     146.301E-03     148.910E-03
            2490             454     146.301E-03     148.910E-03
            2295             455     120.636E-03     117.348E-03
            2300             455     120.636E-03     117.348E-03
            2507             455     120.636E-03     117.348E-03
            2524             455     120.636E-03     117.348E-03
            2300             456     89.5589E-03     94.3996E-03
            2524             456     89.5589E-03     94.3996E-03
            2541             456     89.5589E-03     94.3996E-03
            2305             456     89.5589E-03     94.3996E-03
            2310             457     69.5465E-03     65.5047E-03
            2541             457     69.5465E-03     65.5047E-03
            2558             457     69.5465E-03     65.5047E-03
            2305             457     69.5465E-03     65.5047E-03
            2558             458     46.0794E-03     44.7667E-03
            2575             458     46.0794E-03     44.7667E-03
            2315             458     46.0794E-03     44.7667E-03
            2310             458     46.0794E-03     44.7667E-03
            2320             459     35.7139E-03     40.2366E-03
            2575             459     35.7139E-03     40.2366E-03
            2592             459     35.7139E-03     40.2366E-03
            2315             459     35.7139E-03     40.2366E-03
            2609             460     28.4501E-03     32.7220E-03
            2320             460     28.4501E-03     32.7220E-03
            2325             460     28.4501E-03     32.7220E-03
            2592             460     28.4501E-03     32.7220E-03
            2325             461     19.8761E-03     20.1211E-03
            2324             461     19.8761E-03     20.1211E-03
            3230             461     19.8761E-03     20.1211E-03
            3229             461     19.8761E-03     20.1211E-03
            2324             462     27.9476E-03     28.1673E-03
            3229             462     27.9476E-03     28.1673E-03
            2323             462     27.9476E-03     28.1673E-03
            3228             462     27.9476E-03     28.1673E-03
            2323             463     34.2233E-03     34.3859E-03
            3228             463     34.2233E-03     34.3859E-03
            3227             463     34.2233E-03     34.3859E-03
            2322             463     34.2233E-03     34.3859E-03
            3226             464     37.9356E-03     38.0687E-03
            3227             464     37.9356E-03     38.0687E-03
            2321             464     37.9356E-03     38.0687E-03
            2322             464     37.9356E-03     38.0687E-03
            2885             465     100.885E-03     100.120E-03
            2316             465     100.885E-03     100.120E-03
            2321             465     100.885E-03     100.120E-03
            2880             465     100.885E-03     100.120E-03
            2880             466     125.787E-03     123.776E-03
            2875             466     125.787E-03     123.776E-03
            2316             466     125.787E-03     123.776E-03
            2311             466     125.787E-03     123.776E-03
            2306             467     126.180E-03     124.802E-03
            2875             467     126.180E-03     124.802E-03
            2870             467     126.180E-03     124.802E-03
            2311             467     126.180E-03     124.802E-03
            2865             468     126.171E-03     124.490E-03
            2870             468     126.171E-03     124.490E-03
            2306             468     126.171E-03     124.490E-03
            2301             468     126.171E-03     124.490E-03
            2860             469     125.357E-03     125.742E-03
            2301             469     125.357E-03     125.742E-03
            2296             469     125.357E-03     125.742E-03
            2865             469     125.357E-03     125.742E-03
            2855             470     126.549E-03     127.719E-03
            2296             470     126.549E-03     127.719E-03
            2860             470     126.549E-03     127.719E-03
            2291             470     126.549E-03     127.719E-03
            2291             471     126.800E-03     124.689E-03
            2850             471     126.800E-03     124.689E-03
            2286             471     126.800E-03     124.689E-03
            2855             471     126.800E-03     124.689E-03
            2845             472     127.985E-03     125.724E-03
            2286             472     127.985E-03     125.724E-03
            2850             472     127.985E-03     125.724E-03
            2281             472     127.985E-03     125.724E-03
            2276             473     119.395E-03     118.036E-03
            2845             473     119.395E-03     118.036E-03
            2281             473     119.395E-03     118.036E-03
            2840             473     119.395E-03     118.036E-03
            3089             476     140.159E-03     142.339E-03
            3072             476     140.159E-03     142.339E-03
            2841             476     140.159E-03     142.339E-03
            2836             476     140.159E-03     142.339E-03
            2841             477     140.445E-03     144.555E-03
            2846             477     140.445E-03     144.555E-03
            3089             477     140.445E-03     144.555E-03
            3106             477     140.445E-03     144.555E-03
            3123             478     150.785E-03     152.831E-03
            2851             478     150.785E-03     152.831E-03
            3106             478     150.785E-03     152.831E-03
            2846             478     150.785E-03     152.831E-03
            3123             479     122.989E-03     119.858E-03
            2851             479     122.989E-03     119.858E-03
            3140             479     122.989E-03     119.858E-03
            2856             479     122.989E-03     119.858E-03
            3157             480     90.1119E-03     95.1171E-03
            3140             480     90.1119E-03     95.1171E-03
            2861             480     90.1119E-03     95.1171E-03
            2856             480     90.1119E-03     95.1171E-03
            3174             481     68.1928E-03     64.4299E-03
            2861             481     68.1928E-03     64.4299E-03
            2866             481     68.1928E-03     64.4299E-03
            3157             481     68.1928E-03     64.4299E-03
            2871             482     39.2914E-03     40.5185E-03
            3174             482     39.2914E-03     40.5185E-03
            2866             482     39.2914E-03     40.5185E-03
            3191             482     39.2914E-03     40.5185E-03
            3208             483     24.5040E-03     31.7558E-03
            3191             483     24.5040E-03     31.7558E-03
            2871             483     24.5040E-03     31.7558E-03
            2876             483     24.5040E-03     31.7558E-03
            2881             484     19.5178E-03     24.5371E-03
            3225             484     19.5178E-03     24.5371E-03
            3208             484     19.5178E-03     24.5371E-03
            2876             484     19.5178E-03     24.5371E-03
            2455             496     382.018E-06     421.551E-06
            2454             496     382.018E-06     421.551E-06
            2453             497     408.752E-06     404.841E-06
            2454             497     408.752E-06     404.841E-06
            2452             498     416.886E-06     397.667E-06
            2453             498     416.886E-06     397.667E-06
            2451             499     423.008E-06     400.220E-06
            2452             499     423.008E-06     400.220E-06
            2451             500     427.598E-06     399.236E-06
            2450             500     427.598E-06     399.236E-06
            2449             501     433.179E-06     400.344E-06
            2450             501     433.179E-06     400.344E-06
            2448             502     438.770E-06     401.594E-06
            2449             502     438.770E-06     401.594E-06
            2447             503     444.450E-06     404.135E-06
            2448             503     444.450E-06     404.135E-06
            2447             504     450.273E-06     406.726E-06
            2446             504     450.273E-06     406.726E-06
            2446             505     455.863E-06     410.317E-06
            2445             505     455.863E-06     410.317E-06
            2445             506     460.735E-06     412.832E-06
            2444             506     460.735E-06     412.832E-06
            2443             507     463.315E-06     413.551E-06
            2444             507     463.315E-06     413.551E-06
            2443             508     459.907E-06     408.771E-06
            2442             508     459.907E-06     408.771E-06
            2441             509     428.610E-06     377.060E-06
            2442             509     428.610E-06     377.060E-06
            2441             510     372.216E-06     313.302E-06
            2440             510     372.216E-06     313.302E-06
            2440             511     227.714E-06     249.650E-06
            2439             511     227.714E-06     249.650E-06
            2779             512     143.140E-03     149.318E-03
            2457             512     143.140E-03     149.318E-03
            2456             512     143.140E-03     149.318E-03
            2780             512     143.140E-03     149.318E-03
            2458             513     139.328E-03     145.563E-03
            2457             513     139.328E-03     145.563E-03
            2780             513     139.328E-03     145.563E-03
            2781             513     139.328E-03     145.563E-03
            2781             514     134.115E-03     140.360E-03
            2458             514     134.115E-03     140.360E-03
            2459             514     134.115E-03     140.360E-03
            2782             514     134.115E-03     140.360E-03
            2782             515     125.420E-03     131.743E-03
            2783             515     125.420E-03     131.743E-03
            2460             515     125.420E-03     131.743E-03
            2459             515     125.420E-03     131.743E-03
            2784             516     116.645E-03     122.954E-03
            2783             516     116.645E-03     122.954E-03
            2460             516     116.645E-03     122.954E-03
            2461             516     116.645E-03     122.954E-03
            2461             517     107.770E-03     114.196E-03
            2785             517     107.770E-03     114.196E-03
            2784             517     107.770E-03     114.196E-03
            2462             517     107.770E-03     114.196E-03
            2786             518     98.8794E-03     105.176E-03
            2463             518     98.8794E-03     105.176E-03
            2785             518     98.8794E-03     105.176E-03
            2462             518     98.8794E-03     105.176E-03
            2463             519     89.9167E-03     96.2912E-03
            2464             519     89.9167E-03     96.2912E-03
            2786             519     89.9167E-03     96.2912E-03
            2787             519     89.9167E-03     96.2912E-03
            2464             520     80.9831E-03     87.2802E-03
            2465             520     80.9831E-03     87.2802E-03
            2788             520     80.9831E-03     87.2802E-03
            2787             520     80.9831E-03     87.2802E-03
            2465             521     72.0457E-03     78.3723E-03
            2789             521     72.0457E-03     78.3723E-03
            2788             521     72.0457E-03     78.3723E-03
            2466             521     72.0457E-03     78.3723E-03
            2790             522     63.1858E-03     69.4625E-03
            2789             522     63.1858E-03     69.4625E-03
            2466             522     63.1858E-03     69.4625E-03
            2467             522     63.1858E-03     69.4625E-03
            2468             523     54.4189E-03     60.7052E-03
            2791             523     54.4189E-03     60.7052E-03
            2790             523     54.4189E-03     60.7052E-03
            2467             523     54.4189E-03     60.7052E-03
            2792             524     45.8202E-03     52.0832E-03
            2468             524     45.8202E-03     52.0832E-03
            2791             524     45.8202E-03     52.0832E-03
            2469             524     45.8202E-03     52.0832E-03
            2793             525     37.7020E-03     43.8915E-03
            2470             525     37.7020E-03     43.8915E-03
            2469             525     37.7020E-03     43.8915E-03
            2792             525     37.7020E-03     43.8915E-03
            2794             526     29.9041E-03     36.1399E-03
            2471             526     29.9041E-03     36.1399E-03
            2470             526     29.9041E-03     36.1399E-03
            2793             526     29.9041E-03     36.1399E-03
            2472             527     24.0327E-03     30.9317E-03
            2471             527     24.0327E-03     30.9317E-03
            2795             527     24.0327E-03     30.9317E-03
            2794             527     24.0327E-03     30.9317E-03
            2472             528     23.4355E-03     24.3272E-03
            2489             528     23.4355E-03     24.3272E-03
            3073             528     23.4355E-03     24.3272E-03
            3056             528     23.4355E-03     24.3272E-03
            3073             529     22.3702E-03     23.2478E-03
            2489             529     22.3702E-03     23.2478E-03
            3090             529     22.3702E-03     23.2478E-03
            2506             529     22.3702E-03     23.2478E-03
            2523             530     21.6277E-03     23.6315E-03
            2506             530     21.6277E-03     23.6315E-03
            3090             530     21.6277E-03     23.6315E-03
            3107             530     21.6277E-03     23.6315E-03
            2540             531     25.4173E-03     22.3795E-03
            3124             531     25.4173E-03     22.3795E-03
            3107             531     25.4173E-03     22.3795E-03
            2523             531     25.4173E-03     22.3795E-03
            2540             532     27.3401E-03     24.2393E-03
            3124             532     27.3401E-03     24.2393E-03
            3141             532     27.3401E-03     24.2393E-03
            2557             532     27.3401E-03     24.2393E-03
            3141             533     29.5981E-03     26.1476E-03
            2557             533     29.5981E-03     26.1476E-03
            2574             533     29.5981E-03     26.1476E-03
            3158             533     29.5981E-03     26.1476E-03
            2591             534     32.1240E-03     30.0068E-03
            3175             534     32.1240E-03     30.0068E-03
            3158             534     32.1240E-03     30.0068E-03
            2574             534     32.1240E-03     30.0068E-03
            3192             535     31.5995E-03     36.0667E-03
            3175             535     31.5995E-03     36.0667E-03
            2591             535     31.5995E-03     36.0667E-03
            2608             535     31.5995E-03     36.0667E-03
            3192             536     17.5479E-03     21.1672E-03
            2625             536     17.5479E-03     21.1672E-03
            3209             536     17.5479E-03     21.1672E-03
            2608             536     17.5479E-03     21.1672E-03
            2987             537     4.08563E-03     4.25021E-03
            2625             537     4.08563E-03     4.25021E-03
            2624             537     4.08563E-03     4.25021E-03
            2986             537     4.08563E-03     4.25021E-03
            2624             538     4.11735E-03     4.27365E-03
            2623             538     4.11735E-03     4.27365E-03
            2985             538     4.11735E-03     4.27365E-03
            2986             538     4.11735E-03     4.27365E-03
            2622             539     4.15172E-03     4.30922E-03
            2623             539     4.15172E-03     4.30922E-03
            2984             539     4.15172E-03     4.30922E-03
            2985             539     4.15172E-03     4.30922E-03
            2984             540     4.19519E-03     4.35897E-03
            2621             540     4.19519E-03     4.35897E-03
            2983             540     4.19519E-03     4.35897E-03
            2622             540     4.19519E-03     4.35897E-03
            2982             541     4.24759E-03     4.41587E-03
            2621             541     4.24759E-03     4.41587E-03
            2620             541     4.24759E-03     4.41587E-03
            2983             541     4.24759E-03     4.41587E-03
            2619             542     4.31033E-03     4.48210E-03
            2981             542     4.31033E-03     4.48210E-03
            2620             542     4.31033E-03     4.48210E-03
            2982             542     4.31033E-03     4.48210E-03
            2618             543     4.38226E-03     4.55681E-03
            2980             543     4.38226E-03     4.55681E-03
            2981             543     4.38226E-03     4.55681E-03
            2619             543     4.38226E-03     4.55681E-03
            2617             544     4.46314E-03     4.63986E-03
            2618             544     4.46314E-03     4.63986E-03
            2979             544     4.46314E-03     4.63986E-03
            2980             544     4.46314E-03     4.63986E-03
            2617             545     4.55261E-03     4.73077E-03
            2616             545     4.55261E-03     4.73077E-03
            2979             545     4.55261E-03     4.73077E-03
            2978             545     4.55261E-03     4.73077E-03
            2616             546     4.65008E-03     4.82903E-03
            2977             546     4.65008E-03     4.82903E-03
            2978             546     4.65008E-03     4.82903E-03
            2615             546     4.65008E-03     4.82903E-03
            2615             547     4.75491E-03     4.93409E-03
            2977             547     4.75491E-03     4.93409E-03
            2614             547     4.75491E-03     4.93409E-03
            2976             547     4.75491E-03     4.93409E-03
            2613             548     4.86607E-03     5.04497E-03
            2976             548     4.86607E-03     5.04497E-03
            2614             548     4.86607E-03     5.04497E-03
            2975             548     4.86607E-03     5.04497E-03
            2974             549     4.98199E-03     5.16085E-03
            2975             549     4.98199E-03     5.16085E-03
            2612             549     4.98199E-03     5.16085E-03
            2613             549     4.98199E-03     5.16085E-03
            2612             550     5.10152E-03     5.28101E-03
            2611             550     5.10152E-03     5.28101E-03
            2974             550     5.10152E-03     5.28101E-03
            2973             550     5.10152E-03     5.28101E-03
            2972             551     5.23613E-03     5.41758E-03
            2610             551     5.23613E-03     5.41758E-03
            2611             551     5.23613E-03     5.41758E-03
            2973             551     5.23613E-03     5.41758E-03
            2610             552     5.43775E-03     5.63332E-03
            2971             552     5.43775E-03     5.63332E-03
            2972             552     5.43775E-03     5.63332E-03
            2609             552     5.43775E-03     5.63332E-03
            2626             553     1.09144E-03     985.134E-06
            2627             553     1.09144E-03     985.134E-06
            3209             553     1.09144E-03     985.134E-06
            3210             553     1.09144E-03     985.134E-06
            2628             554     1.12927E-03     1.03447E-03
            2627             554     1.12927E-03     1.03447E-03
            3211             554     1.12927E-03     1.03447E-03
            3210             554     1.12927E-03     1.03447E-03
            2628             555     1.21196E-03     1.14147E-03
            3211             555     1.21196E-03     1.14147E-03
            2629             555     1.21196E-03     1.14147E-03
            3212             555     1.21196E-03     1.14147E-03
            2629             556     1.33561E-03     1.29297E-03
            2630             556     1.33561E-03     1.29297E-03
            3213             556     1.33561E-03     1.29297E-03
            3212             556     1.33561E-03     1.29297E-03
            2630             557     1.48885E-03     1.46871E-03
            3213             557     1.48885E-03     1.46871E-03
            2631             557     1.48885E-03     1.46871E-03
            3214             557     1.48885E-03     1.46871E-03
            3214             558     1.66423E-03     1.66195E-03
            2632             558     1.66423E-03     1.66195E-03
            2631             558     1.66423E-03     1.66195E-03
            3215             558     1.66423E-03     1.66195E-03
            3216             559     1.85446E-03     1.86641E-03
            3215             559     1.85446E-03     1.86641E-03
            2633             559     1.85446E-03     1.86641E-03
            2632             559     1.85446E-03     1.86641E-03
            2633             560     2.05542E-03     2.07878E-03
            3216             560     2.05542E-03     2.07878E-03
            3217             560     2.05542E-03     2.07878E-03
            2634             560     2.05542E-03     2.07878E-03
            3218             561     2.26429E-03     2.29671E-03
            2635             561     2.26429E-03     2.29671E-03
            2634             561     2.26429E-03     2.29671E-03
            3217             561     2.26429E-03     2.29671E-03
            3219             562     2.47902E-03     2.51866E-03
            2635             562     2.47902E-03     2.51866E-03
            3218             562     2.47902E-03     2.51866E-03
            2636             562     2.47902E-03     2.51866E-03
            3219             563     2.69810E-03     2.74352E-03
            2637             563     2.69810E-03     2.74352E-03
            3220             563     2.69810E-03     2.74352E-03
            2636             563     2.69810E-03     2.74352E-03
            2638             564     2.92002E-03     2.97005E-03
            3221             564     2.92002E-03     2.97005E-03
            3220             564     2.92002E-03     2.97005E-03
            2637             564     2.92002E-03     2.97005E-03
            3222             565     3.14298E-03     3.19738E-03
            3221             565     3.14298E-03     3.19738E-03
            2639             565     3.14298E-03     3.19738E-03
            2638             565     3.14298E-03     3.19738E-03
            3222             566     3.36579E-03     3.42481E-03
            3223             566     3.36579E-03     3.42481E-03
            2639             566     3.36579E-03     3.42481E-03
            2640             566     3.36579E-03     3.42481E-03
            3224             567     3.59993E-03     3.66460E-03
            2641             567     3.59993E-03     3.66460E-03
            3223             567     3.59993E-03     3.66460E-03
            2640             567     3.59993E-03     3.66460E-03
            3225             568     3.89746E-03     3.97967E-03
            2642             568     3.89746E-03     3.97967E-03
            2641             568     3.89746E-03     3.97967E-03
            3224             568     3.89746E-03     3.97967E-03
            2642             569     711.630E-06     737.973E-06
            2659             569     711.630E-06     737.973E-06
            2916             569     711.630E-06     737.973E-06
            2921             569     711.630E-06     737.973E-06
            2921             570     485.775E-06     462.107E-06
            2926             570     485.775E-06     462.107E-06
            2676             570     485.775E-06     462.107E-06
            2659             570     485.775E-06     462.107E-06
            2693             571     238.889E-06     270.980E-06
            2931             571     238.889E-06     270.980E-06
            2676             571     238.889E-06     270.980E-06
            2926             571     238.889E-06     270.980E-06
            2693             572     167.053E-06     228.340E-06
            2936             572     167.053E-06     228.340E-06
            2710             572     167.053E-06     228.340E-06
            2931             572     167.053E-06     228.340E-06
            2709             573     221.274E-06     242.960E-06
            2710             573     221.274E-06     242.960E-06
            2709             574     366.194E-06     306.915E-06
            2708             574     366.194E-06     306.915E-06
            2708             575     428.298E-06     376.577E-06
            2707             575     428.298E-06     376.577E-06
            2707             576     463.355E-06     412.999E-06
            2706             576     463.355E-06     412.999E-06
            2706             577     469.854E-06     420.626E-06
            2705             577     469.854E-06     420.626E-06
            2704             578     467.982E-06     420.624E-06
            2705             578     467.982E-06     420.624E-06
            2704             579     463.172E-06     418.223E-06
            2703             579     463.172E-06     418.223E-06
            2702             580     457.263E-06     414.281E-06
            2703             580     457.263E-06     414.281E-06
            2701             581     450.987E-06     411.171E-06
            2702             581     450.987E-06     411.171E-06
            2700             582     444.862E-06     408.125E-06
            2701             582     444.862E-06     408.125E-06
            2700             583     438.775E-06     406.302E-06
            2699             583     438.775E-06     406.302E-06
            2698             584     432.814E-06     404.731E-06
            2699             584     432.814E-06     404.731E-06
            2697             585     427.770E-06     405.011E-06
            2698             585     427.770E-06     405.011E-06
            2697             586     420.930E-06     402.298E-06
            2696             586     420.930E-06     402.298E-06
            2695             587     412.218E-06     410.175E-06
            2696             587     412.218E-06     410.175E-06
            2695             588     385.261E-06     425.947E-06
            2694             588     385.261E-06     425.947E-06
            3038             589     390.588E-06     428.229E-06
            3055             589     390.588E-06     428.229E-06
            2694             589     390.588E-06     428.229E-06
            2677             589     390.588E-06     428.229E-06
            3021             590     419.383E-06     364.913E-06
            3038             590     419.383E-06     364.913E-06
            2677             590     419.383E-06     364.913E-06
            2660             590     419.383E-06     364.913E-06
            2660             591     407.864E-06     350.005E-06
            3021             591     407.864E-06     350.005E-06
            3004             591     407.864E-06     350.005E-06
            2643             591     407.864E-06     350.005E-06
            2643             592     358.615E-06     389.926E-06
            2987             592     358.615E-06     389.926E-06
            2626             592     358.615E-06     389.926E-06
            3004             592     358.615E-06     389.926E-06
            3250             601     167.053E-06     228.340E-06
            3022             601     167.053E-06     228.340E-06
            3245             601     167.053E-06     228.340E-06
            3039             601     167.053E-06     228.340E-06
            3022             602     238.889E-06     270.980E-06
            3005             602     238.889E-06     270.980E-06
            3240             602     238.889E-06     270.980E-06
            3245             602     238.889E-06     270.980E-06
            2988             603     485.775E-06     462.107E-06
            3240             603     485.775E-06     462.107E-06
            3235             603     485.775E-06     462.107E-06
            3005             603     485.775E-06     462.107E-06
            3235             604     711.630E-06     737.973E-06
            3230             604     711.630E-06     737.973E-06
            2988             604     711.630E-06     737.973E-06
            2971             604     711.630E-06     737.973E-06
            2920             605     36.4491E-03     36.5824E-03
            2885             605     36.4491E-03     36.5824E-03
            2919             605     36.4491E-03     36.5824E-03
            2884             605     36.4491E-03     36.5824E-03
            2918             606     31.4022E-03     31.5653E-03
            2883             606     31.4022E-03     31.5653E-03
            2884             606     31.4022E-03     31.5653E-03
            2919             606     31.4022E-03     31.5653E-03
            2918             607     24.0881E-03     24.3089E-03
            2883             607     24.0881E-03     24.3089E-03
            2882             607     24.0881E-03     24.3089E-03
            2917             607     24.0881E-03     24.3089E-03
            2917             608     15.4369E-03     15.6841E-03
            2916             608     15.4369E-03     15.6841E-03
            2881             608     15.4369E-03     15.6841E-03
            2882             608     15.4369E-03     15.6841E-03
            2920             611     748.729E-06     728.431E-06
            3231             611     748.729E-06     728.431E-06
            2925             611     748.729E-06     728.431E-06
            3226             611     748.729E-06     728.431E-06
            3231             612     750.490E-06     743.486E-06
            2930             612     750.490E-06     743.486E-06
            3236             612     750.490E-06     743.486E-06
            2925             612     750.490E-06     743.486E-06
            2935             613     748.160E-06     739.079E-06
            3236             613     748.160E-06     739.079E-06
            3241             613     748.160E-06     739.079E-06
            2930             613     748.160E-06     739.079E-06
            3246             614     748.714E-06     730.578E-06
            2940             614     748.714E-06     730.578E-06
            2935             614     748.714E-06     730.578E-06
            3241             614     748.714E-06     730.578E-06
            2940             615     694.965E-06     683.262E-06
            2939             615     694.965E-06     683.262E-06
            2938             616     551.561E-06     545.265E-06
            2939             616     551.561E-06     545.265E-06
            2937             617     329.348E-06     348.930E-06
            2938             617     329.348E-06     348.930E-06
            2936             618     220.651E-06     295.760E-06
            2937             618     220.651E-06     295.760E-06
            3054             619     385.261E-06     425.947E-06
            3055             619     385.261E-06     425.947E-06
            3054             620     412.218E-06     410.175E-06
            3053             620     412.218E-06     410.175E-06
            3052             621     420.930E-06     402.298E-06
            3053             621     420.930E-06     402.298E-06
            3051             622     427.770E-06     405.011E-06
            3052             622     427.770E-06     405.011E-06
            3050             623     432.814E-06     404.731E-06
            3051             623     432.814E-06     404.731E-06
            3050             624     438.775E-06     406.302E-06
            3049             624     438.775E-06     406.302E-06
            3048             625     444.862E-06     408.125E-06
            3049             625     444.862E-06     408.125E-06
            3048             626     450.987E-06     411.171E-06
            3047             626     450.987E-06     411.171E-06
            3046             627     457.263E-06     414.281E-06
            3047             627     457.263E-06     414.281E-06
            3045             628     463.172E-06     418.223E-06
            3046             628     463.172E-06     418.223E-06
            3044             629     467.982E-06     420.624E-06
            3045             629     467.982E-06     420.624E-06
            3043             630     469.854E-06     420.626E-06
            3044             630     469.854E-06     420.626E-06
            3042             631     463.355E-06     412.999E-06
            3043             631     463.355E-06     412.999E-06
            3042             632     428.298E-06     376.577E-06
            3041             632     428.298E-06     376.577E-06
            3040             633     366.194E-06     306.915E-06
            3041             633     366.194E-06     306.915E-06
            3040             634     221.274E-06     242.960E-06
            3039             634     221.274E-06     242.960E-06
            3249             635     220.651E-06     295.760E-06
            3250             635     220.651E-06     295.760E-06
            3248             636     329.348E-06     348.930E-06
            3249             636     329.348E-06     348.930E-06
            3247             637     551.561E-06     545.265E-06
            3248             637     551.561E-06     545.265E-06
            3247             638     694.965E-06     683.262E-06
            3246             638     694.965E-06     683.262E-06
               1             639     6.09555E-03     6.68445E-03
              19             639     6.09555E-03     6.68445E-03
               2             639     6.09555E-03     6.68445E-03
              18             639     6.09555E-03     6.68445E-03
              20             640     5.85135E-03     5.63409E-03
               2             640     5.85135E-03     5.63409E-03
               3             640     5.85135E-03     5.63409E-03
              19             640     5.85135E-03     5.63409E-03
               4             641     5.89013E-03     5.97588E-03
              21             641     5.89013E-03     5.97588E-03
              20             641     5.89013E-03     5.97588E-03
               3             641     5.89013E-03     5.97588E-03
              22             642     5.93387E-03     5.95463E-03
              21             642     5.93387E-03     5.95463E-03
               4             642     5.93387E-03     5.95463E-03
               5             642     5.93387E-03     5.95463E-03
               6             643     5.99527E-03     6.04316E-03
              22             643     5.99527E-03     6.04316E-03
               5             643     5.99527E-03     6.04316E-03
              23             643     5.99527E-03     6.04316E-03
               6             644     6.06358E-03     6.11470E-03
               7             644     6.06358E-03     6.11470E-03
              24             644     6.06358E-03     6.11470E-03
              23             644     6.06358E-03     6.11470E-03
               7             645     6.14363E-03     6.20365E-03
              25             645     6.14363E-03     6.20365E-03
               8             645     6.14363E-03     6.20365E-03
              24             645     6.14363E-03     6.20365E-03
               9             646     6.23328E-03     6.30090E-03
               8             646     6.23328E-03     6.30090E-03
              26             646     6.23328E-03     6.30090E-03
              25             646     6.23328E-03     6.30090E-03
              27             647     6.33626E-03     6.41095E-03
              10             647     6.33626E-03     6.41095E-03
               9             647     6.33626E-03     6.41095E-03
              26             647     6.33626E-03     6.41095E-03
              28             648     6.44682E-03     6.53013E-03
              10             648     6.44682E-03     6.53013E-03
              11             648     6.44682E-03     6.53013E-03
              27             648     6.44682E-03     6.53013E-03
              12             649     6.58202E-03     6.66598E-03
              28             649     6.58202E-03     6.66598E-03
              11             649     6.58202E-03     6.66598E-03
              29             649     6.58202E-03     6.66598E-03
              30             650     6.69119E-03     6.80163E-03
              29             650     6.69119E-03     6.80163E-03
              13             650     6.69119E-03     6.80163E-03
              12             650     6.69119E-03     6.80163E-03
              14             651     6.94566E-03     6.98961E-03
              13             651     6.94566E-03     6.98961E-03
              30             651     6.94566E-03     6.98961E-03
              31             651     6.94566E-03     6.98961E-03
              14             652     6.78998E-03     7.05855E-03
              31             652     6.78998E-03     7.05855E-03
              15             652     6.78998E-03     7.05855E-03
              32             652     6.78998E-03     7.05855E-03
              15             653     8.37290E-03     7.85027E-03
              33             653     8.37290E-03     7.85027E-03
              16             653     8.37290E-03     7.85027E-03
              32             653     8.37290E-03     7.85027E-03
              17             654     9.55900E-03     11.4935E-03
              34             654     9.55900E-03     11.4935E-03
              16             654     9.55900E-03     11.4935E-03
              33             654     9.55900E-03     11.4935E-03
              18             655     7.73473E-03     9.26141E-03
              35             655     7.73473E-03     9.26141E-03
              19             655     7.73473E-03     9.26141E-03
              36             655     7.73473E-03     9.26141E-03
              20             656     8.20257E-03     8.22851E-03
              19             656     8.20257E-03     8.22851E-03
              36             656     8.20257E-03     8.22851E-03
              37             656     8.20257E-03     8.22851E-03
              20             657     8.72906E-03     8.72591E-03
              21             657     8.72906E-03     8.72591E-03
              38             657     8.72906E-03     8.72591E-03
              37             657     8.72906E-03     8.72591E-03
              39             658     9.26099E-03     9.26921E-03
              22             658     9.26099E-03     9.26921E-03
              21             658     9.26099E-03     9.26921E-03
              38             658     9.26099E-03     9.26921E-03
              23             659     9.88052E-03     9.98661E-03
              22             659     9.88052E-03     9.98661E-03
              40             659     9.88052E-03     9.98661E-03
              39             659     9.88052E-03     9.98661E-03
              24             660     10.5134E-03     10.7452E-03
              40             660     10.5134E-03     10.7452E-03
              41             660     10.5134E-03     10.7452E-03
              23             660     10.5134E-03     10.7452E-03
              42             661     11.1932E-03     11.5695E-03
              41             661     11.1932E-03     11.5695E-03
              25             661     11.1932E-03     11.5695E-03
              24             661     11.1932E-03     11.5695E-03
              26             662     11.8784E-03     12.4009E-03
              25             662     11.8784E-03     12.4009E-03
              43             662     11.8784E-03     12.4009E-03
              42             662     11.8784E-03     12.4009E-03
              26             663     12.5912E-03     13.2603E-03
              44             663     12.5912E-03     13.2603E-03
              43             663     12.5912E-03     13.2603E-03
              27             663     12.5912E-03     13.2603E-03
              44             664     13.2803E-03     14.0950E-03
              45             664     13.2803E-03     14.0950E-03
              28             664     13.2803E-03     14.0950E-03
              27             664     13.2803E-03     14.0950E-03
              46             665     13.9789E-03     14.9024E-03
              29             665     13.9789E-03     14.9024E-03
              45             665     13.9789E-03     14.9024E-03
              28             665     13.9789E-03     14.9024E-03
              30             666     14.5477E-03     15.6169E-03
              29             666     14.5477E-03     15.6169E-03
              47             666     14.5477E-03     15.6169E-03
              46             666     14.5477E-03     15.6169E-03
              48             667     14.9947E-03     16.0670E-03
              31             667     14.9947E-03     16.0670E-03
              30             667     14.9947E-03     16.0670E-03
              47             667     14.9947E-03     16.0670E-03
              48             668     14.8237E-03     16.1311E-03
              31             668     14.8237E-03     16.1311E-03
              49             668     14.8237E-03     16.1311E-03
              32             668     14.8237E-03     16.1311E-03
              32             669     14.6275E-03     15.2395E-03
              50             669     14.6275E-03     15.2395E-03
              49             669     14.6275E-03     15.2395E-03
              33             669     14.6275E-03     15.2395E-03
              33             670     14.9208E-03     16.8396E-03
              34             670     14.9208E-03     16.8396E-03
              51             670     14.9208E-03     16.8396E-03
              50             670     14.9208E-03     16.8396E-03
              52             671     10.0302E-03     10.7677E-03
              35             671     10.0302E-03     10.7677E-03
              36             671     10.0302E-03     10.7677E-03
              53             671     10.0302E-03     10.7677E-03
              53             672     10.6609E-03     9.71049E-03
              36             672     10.6609E-03     9.71049E-03
              54             672     10.6609E-03     9.71049E-03
              37             672     10.6609E-03     9.71049E-03
              37             673     12.0086E-03     10.2314E-03
              54             673     12.0086E-03     10.2314E-03
              38             673     12.0086E-03     10.2314E-03
              55             673     12.0086E-03     10.2314E-03
              39             674     13.3471E-03     11.2507E-03
              55             674     13.3471E-03     11.2507E-03
              38             674     13.3471E-03     11.2507E-03
              56             674     13.3471E-03     11.2507E-03
              39             675     14.7362E-03     12.4834E-03
              56             675     14.7362E-03     12.4834E-03
              40             675     14.7362E-03     12.4834E-03
              57             675     14.7362E-03     12.4834E-03
              40             676     16.1912E-03     13.8261E-03
              58             676     16.1912E-03     13.8261E-03
              41             676     16.1912E-03     13.8261E-03
              57             676     16.1912E-03     13.8261E-03
              58             677     17.6922E-03     15.2472E-03
              59             677     17.6922E-03     15.2472E-03
              41             677     17.6922E-03     15.2472E-03
              42             677     17.6922E-03     15.2472E-03
              42             678     19.2236E-03     16.7122E-03
              60             678     19.2236E-03     16.7122E-03
              43             678     19.2236E-03     16.7122E-03
              59             678     19.2236E-03     16.7122E-03
              43             679     20.7683E-03     18.2085E-03
              44             679     20.7683E-03     18.2085E-03
              61             679     20.7683E-03     18.2085E-03
              60             679     20.7683E-03     18.2085E-03
              62             680     22.3361E-03     19.7135E-03
              44             680     22.3361E-03     19.7135E-03
              45             680     22.3361E-03     19.7135E-03
              61             680     22.3361E-03     19.7135E-03
              45             681     23.8559E-03     21.1995E-03
              46             681     23.8559E-03     21.1995E-03
              62             681     23.8559E-03     21.1995E-03
              63             681     23.8559E-03     21.1995E-03
              47             682     25.3284E-03     22.5784E-03
              46             682     25.3284E-03     22.5784E-03
              63             682     25.3284E-03     22.5784E-03
              64             682     25.3284E-03     22.5784E-03
              64             683     26.4225E-03     23.6281E-03
              65             683     26.4225E-03     23.6281E-03
              48             683     26.4225E-03     23.6281E-03
              47             683     26.4225E-03     23.6281E-03
              65             684     26.6980E-03     23.8780E-03
              49             684     26.6980E-03     23.8780E-03
              66             684     26.6980E-03     23.8780E-03
              48             684     26.6980E-03     23.8780E-03
              50             685     24.7852E-03     22.1292E-03
              49             685     24.7852E-03     22.1292E-03
              67             685     24.7852E-03     22.1292E-03
              66             685     24.7852E-03     22.1292E-03
              51             686     22.5765E-03     21.5680E-03
              68             686     22.5765E-03     21.5680E-03
              67             686     22.5765E-03     21.5680E-03
              50             686     22.5765E-03     21.5680E-03
              53             687     9.84764E-03     9.49592E-03
              52             687     9.84764E-03     9.49592E-03
              69             687     9.84764E-03     9.49592E-03
              70             687     9.84764E-03     9.49592E-03
              54             688     9.45449E-03     9.27247E-03
              71             688     9.45449E-03     9.27247E-03
              70             688     9.45449E-03     9.27247E-03
              53             688     9.45449E-03     9.27247E-03
              71             689     10.6971E-03     9.96532E-03
              54             689     10.6971E-03     9.96532E-03
              55             689     10.6971E-03     9.96532E-03
              72             689     10.6971E-03     9.96532E-03
              55             690     12.0927E-03     11.2092E-03
              72             690     12.0927E-03     11.2092E-03
              56             690     12.0927E-03     11.2092E-03
              73             690     12.0927E-03     11.2092E-03
              56             691     13.5565E-03     12.6239E-03
              74             691     13.5565E-03     12.6239E-03
              57             691     13.5565E-03     12.6239E-03
              73             691     13.5565E-03     12.6239E-03
              74             692     15.1000E-03     14.1299E-03
              58             692     15.1000E-03     14.1299E-03
              57             692     15.1000E-03     14.1299E-03
              75             692     15.1000E-03     14.1299E-03
              58             693     16.6682E-03     15.6823E-03
              75             693     16.6682E-03     15.6823E-03
              59             693     16.6682E-03     15.6823E-03
              76             693     16.6682E-03     15.6823E-03
              60             694     18.2808E-03     17.2763E-03
              59             694     18.2808E-03     17.2763E-03
              76             694     18.2808E-03     17.2763E-03
              77             694     18.2808E-03     17.2763E-03
              78             695     19.9297E-03     18.9073E-03
              60             695     19.9297E-03     18.9073E-03
              61             695     19.9297E-03     18.9073E-03
              77             695     19.9297E-03     18.9073E-03
              61             696     21.6158E-03     20.5857E-03
              79             696     21.6158E-03     20.5857E-03
              78             696     21.6158E-03     20.5857E-03
              62             696     21.6158E-03     20.5857E-03
              79             697     23.3636E-03     22.3142E-03
              80             697     23.3636E-03     22.3142E-03
              62             697     23.3636E-03     22.3142E-03
              63             697     23.3636E-03     22.3142E-03
              80             698     25.0956E-03     24.0594E-03
              81             698     25.0956E-03     24.0594E-03
              64             698     25.0956E-03     24.0594E-03
              63             698     25.0956E-03     24.0594E-03
              64             699     26.7668E-03     25.7152E-03
              81             699     26.7668E-03     25.7152E-03
              82             699     26.7668E-03     25.7152E-03
              65             699     26.7668E-03     25.7152E-03
              83             700     27.8162E-03     26.9215E-03
              82             700     27.8162E-03     26.9215E-03
              66             700     27.8162E-03     26.9215E-03
              65             700     27.8162E-03     26.9215E-03
              84             701     26.5247E-03     26.3833E-03
              67             701     26.5247E-03     26.3833E-03
              83             701     26.5247E-03     26.3833E-03
              66             701     26.5247E-03     26.3833E-03
              84             702     27.8684E-03     27.6374E-03
              67             702     27.8684E-03     27.6374E-03
              68             702     27.8684E-03     27.6374E-03
              85             702     27.8684E-03     27.6374E-03
              70             703     9.29496E-03     8.63911E-03
              86             703     9.29496E-03     8.63911E-03
              87             703     9.29496E-03     8.63911E-03
              69             703     9.29496E-03     8.63911E-03
              71             704     8.76339E-03     8.96761E-03
              87             704     8.76339E-03     8.96761E-03
              70             704     8.76339E-03     8.96761E-03
              88             704     8.76339E-03     8.96761E-03
              88             705     9.38269E-03     9.97273E-03
              89             705     9.38269E-03     9.97273E-03
              72             705     9.38269E-03     9.97273E-03
              71             705     9.38269E-03     9.97273E-03
              73             706     10.7756E-03     11.3182E-03
              90             706     10.7756E-03     11.3182E-03
              89             706     10.7756E-03     11.3182E-03
              72             706     10.7756E-03     11.3182E-03
              73             707     12.3531E-03     12.8844E-03
              91             707     12.3531E-03     12.8844E-03
              90             707     12.3531E-03     12.8844E-03
              74             707     12.3531E-03     12.8844E-03
              91             708     13.9559E-03     14.5017E-03
              75             708     13.9559E-03     14.5017E-03
              92             708     13.9559E-03     14.5017E-03
              74             708     13.9559E-03     14.5017E-03
              93             709     15.6036E-03     16.1561E-03
              76             709     15.6036E-03     16.1561E-03
              92             709     15.6036E-03     16.1561E-03
              75             709     15.6036E-03     16.1561E-03
              94             710     17.2668E-03     17.8283E-03
              77             710     17.2668E-03     17.8283E-03
              76             710     17.2668E-03     17.8283E-03
              93             710     17.2668E-03     17.8283E-03
              77             711     18.9643E-03     19.5293E-03
              95             711     18.9643E-03     19.5293E-03
              78             711     18.9643E-03     19.5293E-03
              94             711     18.9643E-03     19.5293E-03
              96             712     20.6878E-03     21.2625E-03
              78             712     20.6878E-03     21.2625E-03
              79             712     20.6878E-03     21.2625E-03
              95             712     20.6878E-03     21.2625E-03
              97             713     22.4600E-03     23.0423E-03
              79             713     22.4600E-03     23.0423E-03
              80             713     22.4600E-03     23.0423E-03
              96             713     22.4600E-03     23.0423E-03
              97             714     24.2592E-03     24.8900E-03
              81             714     24.2592E-03     24.8900E-03
              98             714     24.2592E-03     24.8900E-03
              80             714     24.2592E-03     24.8900E-03
              81             715     26.0729E-03     26.7597E-03
              99             715     26.0729E-03     26.7597E-03
              82             715     26.0729E-03     26.7597E-03
              98             715     26.0729E-03     26.7597E-03
             100             716     27.8583E-03     28.6601E-03
              83             716     27.8583E-03     28.6601E-03
              99             716     27.8583E-03     28.6601E-03
              82             716     27.8583E-03     28.6601E-03
             101             717     29.7843E-03     30.5510E-03
              84             717     29.7843E-03     30.5510E-03
              83             717     29.7843E-03     30.5510E-03
             100             717     29.7843E-03     30.5510E-03
              85             718     34.4270E-03     34.9262E-03
             102             718     34.4270E-03     34.9262E-03
             101             718     34.4270E-03     34.9262E-03
              84             718     34.4270E-03     34.9262E-03
              87             719     8.60949E-03     8.81993E-03
             104             719     8.60949E-03     8.81993E-03
             103             719     8.60949E-03     8.81993E-03
              86             719     8.60949E-03     8.81993E-03
             105             720     7.58484E-03     9.09098E-03
             104             720     7.58484E-03     9.09098E-03
              88             720     7.58484E-03     9.09098E-03
              87             720     7.58484E-03     9.09098E-03
              88             721     8.12728E-03     10.1549E-03
             106             721     8.12728E-03     10.1549E-03
              89             721     8.12728E-03     10.1549E-03
             105             721     8.12728E-03     10.1549E-03
             107             722     9.54428E-03     11.6278E-03
             106             722     9.54428E-03     11.6278E-03
              89             722     9.54428E-03     11.6278E-03
              90             722     9.54428E-03     11.6278E-03
             107             723     11.1403E-03     13.2544E-03
             108             723     11.1403E-03     13.2544E-03
              90             723     11.1403E-03     13.2544E-03
              91             723     11.1403E-03     13.2544E-03
             108             724     12.8055E-03     14.9447E-03
             109             724     12.8055E-03     14.9447E-03
              92             724     12.8055E-03     14.9447E-03
              91             724     12.8055E-03     14.9447E-03
             109             725     14.4855E-03     16.6440E-03
             110             725     14.4855E-03     16.6440E-03
              92             725     14.4855E-03     16.6440E-03
              93             725     14.4855E-03     16.6440E-03
             111             726     16.1780E-03     18.3524E-03
              93             726     16.1780E-03     18.3524E-03
             110             726     16.1780E-03     18.3524E-03
              94             726     16.1780E-03     18.3524E-03
              95             727     17.8666E-03     20.0540E-03
             112             727     17.8666E-03     20.0540E-03
             111             727     17.8666E-03     20.0540E-03
              94             727     17.8666E-03     20.0540E-03
             112             728     19.5690E-03     21.7598E-03
             113             728     19.5690E-03     21.7598E-03
              96             728     19.5690E-03     21.7598E-03
              95             728     19.5690E-03     21.7598E-03
              97             729     21.2482E-03     23.4687E-03
              96             729     21.2482E-03     23.4687E-03
             113             729     21.2482E-03     23.4687E-03
             114             729     21.2482E-03     23.4687E-03
             114             730     22.9918E-03     25.2249E-03
              97             730     22.9918E-03     25.2249E-03
             115             730     22.9918E-03     25.2249E-03
              98             730     22.9918E-03     25.2249E-03
             116             731     24.8035E-03     27.1328E-03
              99             731     24.8035E-03     27.1328E-03
              98             731     24.8035E-03     27.1328E-03
             115             731     24.8035E-03     27.1328E-03
             116             732     27.0530E-03     29.4459E-03
             100             732     27.0530E-03     29.4459E-03
             117             732     27.0530E-03     29.4459E-03
              99             732     27.0530E-03     29.4459E-03
             101             733     32.1175E-03     33.7879E-03
             117             733     32.1175E-03     33.7879E-03
             118             733     32.1175E-03     33.7879E-03
             100             733     32.1175E-03     33.7879E-03
             102             734     41.0440E-03     41.3425E-03
             119             734     41.0440E-03     41.3425E-03
             101             734     41.0440E-03     41.3425E-03
             118             734     41.0440E-03     41.3425E-03
             103             735     6.99130E-03     9.86418E-03
             104             735     6.99130E-03     9.86418E-03
             120             735     6.99130E-03     9.86418E-03
             121             735     6.99130E-03     9.86418E-03
             104             736     6.06317E-03     9.55270E-03
             121             736     6.06317E-03     9.55270E-03
             105             736     6.06317E-03     9.55270E-03
             122             736     6.06317E-03     9.55270E-03
             106             737     7.02355E-03     10.5764E-03
             122             737     7.02355E-03     10.5764E-03
             123             737     7.02355E-03     10.5764E-03
             105             737     7.02355E-03     10.5764E-03
             107             738     8.38972E-03     12.1047E-03
             124             738     8.38972E-03     12.1047E-03
             106             738     8.38972E-03     12.1047E-03
             123             738     8.38972E-03     12.1047E-03
             124             739     9.98127E-03     13.7485E-03
             125             739     9.98127E-03     13.7485E-03
             108             739     9.98127E-03     13.7485E-03
             107             739     9.98127E-03     13.7485E-03
             125             740     11.6587E-03     15.4501E-03
             108             740     11.6587E-03     15.4501E-03
             126             740     11.6587E-03     15.4501E-03
             109             740     11.6587E-03     15.4501E-03
             126             741     13.3459E-03     17.1601E-03
             110             741     13.3459E-03     17.1601E-03
             109             741     13.3459E-03     17.1601E-03
             127             741     13.3459E-03     17.1601E-03
             127             742     15.0307E-03     18.8554E-03
             110             742     15.0307E-03     18.8554E-03
             111             742     15.0307E-03     18.8554E-03
             128             742     15.0307E-03     18.8554E-03
             128             743     16.7031E-03     20.5387E-03
             129             743     16.7031E-03     20.5387E-03
             111             743     16.7031E-03     20.5387E-03
             112             743     16.7031E-03     20.5387E-03
             130             744     18.3396E-03     22.1871E-03
             113             744     18.3396E-03     22.1871E-03
             112             744     18.3396E-03     22.1871E-03
             129             744     18.3396E-03     22.1871E-03
             113             745     19.9850E-03     23.8268E-03
             130             745     19.9850E-03     23.8268E-03
             131             745     19.9850E-03     23.8268E-03
             114             745     19.9850E-03     23.8268E-03
             131             746     21.6345E-03     25.4814E-03
             115             746     21.6345E-03     25.4814E-03
             114             746     21.6345E-03     25.4814E-03
             132             746     21.6345E-03     25.4814E-03
             132             747     23.5710E-03     27.4052E-03
             133             747     23.5710E-03     27.4052E-03
             115             747     23.5710E-03     27.4052E-03
             116             747     23.5710E-03     27.4052E-03
             133             748     26.2861E-03     30.0752E-03
             116             748     26.2861E-03     30.0752E-03
             117             748     26.2861E-03     30.0752E-03
             134             748     26.2861E-03     30.0752E-03
             118             749     31.5439E-03     35.4077E-03
             134             749     31.5439E-03     35.4077E-03
             117             749     31.5439E-03     35.4077E-03
             135             749     31.5439E-03     35.4077E-03
             118             750     44.3918E-03     47.5611E-03
             136             750     44.3918E-03     47.5611E-03
             119             750     44.3918E-03     47.5611E-03
             135             750     44.3918E-03     47.5611E-03
             138             751     11.5832E-03     14.3589E-03
             120             751     11.5832E-03     14.3589E-03
             137             751     11.5832E-03     14.3589E-03
             121             751     11.5832E-03     14.3589E-03
             139             752     12.9019E-03     14.3664E-03
             121             752     12.9019E-03     14.3664E-03
             122             752     12.9019E-03     14.3664E-03
             138             752     12.9019E-03     14.3664E-03
             122             753     14.8674E-03     16.2015E-03
             123             753     14.8674E-03     16.2015E-03
             139             753     14.8674E-03     16.2015E-03
             140             753     14.8674E-03     16.2015E-03
             141             754     17.1127E-03     18.4865E-03
             140             754     17.1127E-03     18.4865E-03
             124             754     17.1127E-03     18.4865E-03
             123             754     17.1127E-03     18.4865E-03
             141             755     19.5847E-03     20.9382E-03
             125             755     19.5847E-03     20.9382E-03
             142             755     19.5847E-03     20.9382E-03
             124             755     19.5847E-03     20.9382E-03
             142             756     22.1337E-03     23.4714E-03
             125             756     22.1337E-03     23.4714E-03
             143             756     22.1337E-03     23.4714E-03
             126             756     22.1337E-03     23.4714E-03
             144             757     24.7244E-03     26.0256E-03
             127             757     24.7244E-03     26.0256E-03
             126             757     24.7244E-03     26.0256E-03
             143             757     24.7244E-03     26.0256E-03
             145             758     27.3107E-03     28.5865E-03
             128             758     27.3107E-03     28.5865E-03
             144             758     27.3107E-03     28.5865E-03
             127             758     27.3107E-03     28.5865E-03
             146             759     29.8676E-03     31.1163E-03
             145             759     29.8676E-03     31.1163E-03
             129             759     29.8676E-03     31.1163E-03
             128             759     29.8676E-03     31.1163E-03
             129             760     32.3793E-03     33.5831E-03
             146             760     32.3793E-03     33.5831E-03
             147             760     32.3793E-03     33.5831E-03
             130             760     32.3793E-03     33.5831E-03
             130             761     34.8005E-03     35.9568E-03
             131             761     34.8005E-03     35.9568E-03
             147             761     34.8005E-03     35.9568E-03
             148             761     34.8005E-03     35.9568E-03
             131             762     37.1181E-03     38.1455E-03
             132             762     37.1181E-03     38.1455E-03
             149             762     37.1181E-03     38.1455E-03
             148             762     37.1181E-03     38.1455E-03
             150             763     39.3125E-03     40.1940E-03
             132             763     39.3125E-03     40.1940E-03
             133             763     39.3125E-03     40.1940E-03
             149             763     39.3125E-03     40.1940E-03
             151             764     41.5622E-03     42.1710E-03
             133             764     41.5622E-03     42.1710E-03
             150             764     41.5622E-03     42.1710E-03
             134             764     41.5622E-03     42.1710E-03
             152             765     43.9068E-03     44.4291E-03
             134             765     43.9068E-03     44.4291E-03
             151             765     43.9068E-03     44.4291E-03
             135             765     43.9068E-03     44.4291E-03
             152             766     48.5031E-03     49.9128E-03
             153             766     48.5031E-03     49.9128E-03
             135             766     48.5031E-03     49.9128E-03
             136             766     48.5031E-03     49.9128E-03
             137             767     16.3219E-03     17.6723E-03
             154             767     16.3219E-03     17.6723E-03
             155             767     16.3219E-03     17.6723E-03
             138             767     16.3219E-03     17.6723E-03
             138             768     19.1468E-03     18.5743E-03
             155             768     19.1468E-03     18.5743E-03
             156             768     19.1468E-03     18.5743E-03
             139             768     19.1468E-03     18.5743E-03
             139             769     22.4125E-03     21.2297E-03
             140             769     22.4125E-03     21.2297E-03
             157             769     22.4125E-03     21.2297E-03
             156             769     22.4125E-03     21.2297E-03
             140             770     25.7707E-03     24.4286E-03
             157             770     25.7707E-03     24.4286E-03
             141             770     25.7707E-03     24.4286E-03
             158             770     25.7707E-03     24.4286E-03
             158             771     29.2342E-03     27.8193E-03
             159             771     29.2342E-03     27.8193E-03
             142             771     29.2342E-03     27.8193E-03
             141             771     29.2342E-03     27.8193E-03
             142             772     32.7713E-03     31.3050E-03
             159             772     32.7713E-03     31.3050E-03
             160             772     32.7713E-03     31.3050E-03
             143             772     32.7713E-03     31.3050E-03
             144             773     36.3570E-03     34.8419E-03
             143             773     36.3570E-03     34.8419E-03
             161             773     36.3570E-03     34.8419E-03
             160             773     36.3570E-03     34.8419E-03
             145             774     39.9667E-03     38.4130E-03
             161             774     39.9667E-03     38.4130E-03
             162             774     39.9667E-03     38.4130E-03
             144             774     39.9667E-03     38.4130E-03
             162             775     43.5842E-03     41.9749E-03
             145             775     43.5842E-03     41.9749E-03
             163             775     43.5842E-03     41.9749E-03
             146             775     43.5842E-03     41.9749E-03
             163             776     47.1669E-03     45.5131E-03
             146             776     47.1669E-03     45.5131E-03
             147             776     47.1669E-03     45.5131E-03
             164             776     47.1669E-03     45.5131E-03
             147             777     50.6736E-03     48.9269E-03
             164             777     50.6736E-03     48.9269E-03
             165             777     50.6736E-03     48.9269E-03
             148             777     50.6736E-03     48.9269E-03
             166             778     53.9810E-03     52.1388E-03
             165             778     53.9810E-03     52.1388E-03
             149             778     53.9810E-03     52.1388E-03
             148             778     53.9810E-03     52.1388E-03
             166             779     56.7645E-03     54.8055E-03
             150             779     56.7645E-03     54.8055E-03
             167             779     56.7645E-03     54.8055E-03
             149             779     56.7645E-03     54.8055E-03
             150             780     58.6939E-03     56.5616E-03
             151             780     58.6939E-03     56.5616E-03
             167             780     58.6939E-03     56.5616E-03
             168             780     58.6939E-03     56.5616E-03
             152             781     58.3826E-03     56.3767E-03
             151             781     58.3826E-03     56.3767E-03
             168             781     58.3826E-03     56.3767E-03
             169             781     58.3826E-03     56.3767E-03
             169             782     55.6495E-03     53.7821E-03
             170             782     55.6495E-03     53.7821E-03
             152             782     55.6495E-03     53.7821E-03
             153             782     55.6495E-03     53.7821E-03
             155             783     14.6427E-03     15.8809E-03
             154             783     14.6427E-03     15.8809E-03
             172             783     14.6427E-03     15.8809E-03
             171             783     14.6427E-03     15.8809E-03
             173             784     17.1135E-03     17.9612E-03
             155             784     17.1135E-03     17.9612E-03
             156             784     17.1135E-03     17.9612E-03
             172             784     17.1135E-03     17.9612E-03
             173             785     20.8355E-03     20.7839E-03
             156             785     20.8355E-03     20.7839E-03
             174             785     20.8355E-03     20.7839E-03
             157             785     20.8355E-03     20.7839E-03
             158             786     24.5374E-03     24.2149E-03
             174             786     24.5374E-03     24.2149E-03
             157             786     24.5374E-03     24.2149E-03
             175             786     24.5374E-03     24.2149E-03
             158             787     28.2137E-03     27.8185E-03
             175             787     28.2137E-03     27.8185E-03
             159             787     28.2137E-03     27.8185E-03
             176             787     28.2137E-03     27.8185E-03
             160             788     31.9316E-03     31.5116E-03
             177             788     31.9316E-03     31.5116E-03
             176             788     31.9316E-03     31.5116E-03
             159             788     31.9316E-03     31.5116E-03
             161             789     35.6939E-03     35.2713E-03
             160             789     35.6939E-03     35.2713E-03
             178             789     35.6939E-03     35.2713E-03
             177             789     35.6939E-03     35.2713E-03
             161             790     39.5055E-03     39.0700E-03
             178             790     39.5055E-03     39.0700E-03
             162             790     39.5055E-03     39.0700E-03
             179             790     39.5055E-03     39.0700E-03
             179             791     43.3563E-03     42.9197E-03
             180             791     43.3563E-03     42.9197E-03
             162             791     43.3563E-03     42.9197E-03
             163             791     43.3563E-03     42.9197E-03
             164             792     47.2595E-03     46.8066E-03
             180             792     47.2595E-03     46.8066E-03
             163             792     47.2595E-03     46.8066E-03
             181             792     47.2595E-03     46.8066E-03
             181             793     51.1564E-03     50.7209E-03
             164             793     51.1564E-03     50.7209E-03
             165             793     51.1564E-03     50.7209E-03
             182             793     51.1564E-03     50.7209E-03
             166             794     55.0216E-03     54.5935E-03
             183             794     55.0216E-03     54.5935E-03
             182             794     55.0216E-03     54.5935E-03
             165             794     55.0216E-03     54.5935E-03
             183             795     58.5511E-03     58.2390E-03
             184             795     58.5511E-03     58.2390E-03
             166             795     58.5511E-03     58.2390E-03
             167             795     58.5511E-03     58.2390E-03
             185             796     61.1541E-03     61.1755E-03
             184             796     61.1541E-03     61.1755E-03
             167             796     61.1541E-03     61.1755E-03
             168             796     61.1541E-03     61.1755E-03
             185             797     61.7421E-03     62.2743E-03
             186             797     61.7421E-03     62.2743E-03
             169             797     61.7421E-03     62.2743E-03
             168             797     61.7421E-03     62.2743E-03
             186             798     62.4491E-03     63.1815E-03
             169             798     62.4491E-03     63.1815E-03
             170             798     62.4491E-03     63.1815E-03
             187             798     62.4491E-03     63.1815E-03
             171             799     13.3903E-03     14.2590E-03
             189             799     13.3903E-03     14.2590E-03
             188             799     13.3903E-03     14.2590E-03
             172             799     13.3903E-03     14.2590E-03
             172             800     15.9251E-03     17.3613E-03
             190             800     15.9251E-03     17.3613E-03
             189             800     15.9251E-03     17.3613E-03
             173             800     15.9251E-03     17.3613E-03
             191             801     19.5365E-03     20.6514E-03
             190             801     19.5365E-03     20.6514E-03
             174             801     19.5365E-03     20.6514E-03
             173             801     19.5365E-03     20.6514E-03
             192             802     23.3743E-03     24.1748E-03
             191             802     23.3743E-03     24.1748E-03
             174             802     23.3743E-03     24.1748E-03
             175             802     23.3743E-03     24.1748E-03
             192             803     27.1872E-03     27.9169E-03
             175             803     27.1872E-03     27.9169E-03
             176             803     27.1872E-03     27.9169E-03
             193             803     27.1872E-03     27.9169E-03
             177             804     31.0471E-03     31.7592E-03
             193             804     31.0471E-03     31.7592E-03
             194             804     31.0471E-03     31.7592E-03
             176             804     31.0471E-03     31.7592E-03
             177             805     34.9341E-03     35.6507E-03
             194             805     34.9341E-03     35.6507E-03
             195             805     34.9341E-03     35.6507E-03
             178             805     34.9341E-03     35.6507E-03
             178             806     38.8614E-03     39.5930E-03
             195             806     38.8614E-03     39.5930E-03
             179             806     38.8614E-03     39.5930E-03
             196             806     38.8614E-03     39.5930E-03
             180             807     42.8398E-03     43.5862E-03
             196             807     42.8398E-03     43.5862E-03
             197             807     42.8398E-03     43.5862E-03
             179             807     42.8398E-03     43.5862E-03
             197             808     46.8598E-03     47.6415E-03
             181             808     46.8598E-03     47.6415E-03
             180             808     46.8598E-03     47.6415E-03
             198             808     46.8598E-03     47.6415E-03
             181             809     50.9554E-03     51.7917E-03
             198             809     50.9554E-03     51.7917E-03
             182             809     50.9554E-03     51.7917E-03
             199             809     50.9554E-03     51.7917E-03
             200             810     55.0223E-03     55.9921E-03
             182             810     55.0223E-03     55.9921E-03
             199             810     55.0223E-03     55.9921E-03
             183             810     55.0223E-03     55.9921E-03
             183             811     59.1604E-03     60.2759E-03
             184             811     59.1604E-03     60.2759E-03
             200             811     59.1604E-03     60.2759E-03
             201             811     59.1604E-03     60.2759E-03
             185             812     62.7881E-03     64.2499E-03
             201             812     62.7881E-03     64.2499E-03
             202             812     62.7881E-03     64.2499E-03
             184             812     62.7881E-03     64.2499E-03
             185             813     65.7285E-03     67.5421E-03
             203             813     65.7285E-03     67.5421E-03
             202             813     65.7285E-03     67.5421E-03
             186             813     65.7285E-03     67.5421E-03
             186             814     70.0417E-03     71.0332E-03
             203             814     70.0417E-03     71.0332E-03
             187             814     70.0417E-03     71.0332E-03
             204             814     70.0417E-03     71.0332E-03
             205             815     12.3970E-03     14.0202E-03
             188             815     12.3970E-03     14.0202E-03
             189             815     12.3970E-03     14.0202E-03
             206             815     12.3970E-03     14.0202E-03
             190             816     15.2245E-03     17.1386E-03
             206             816     15.2245E-03     17.1386E-03
             207             816     15.2245E-03     17.1386E-03
             189             816     15.2245E-03     17.1386E-03
             208             817     18.5939E-03     20.6608E-03
             207             817     18.5939E-03     20.6608E-03
             191             817     18.5939E-03     20.6608E-03
             190             817     18.5939E-03     20.6608E-03
             192             818     22.2938E-03     24.2560E-03
             208             818     22.2938E-03     24.2560E-03
             209             818     22.2938E-03     24.2560E-03
             191             818     22.2938E-03     24.2560E-03
             209             819     26.1919E-03     28.0845E-03
             210             819     26.1919E-03     28.0845E-03
             192             819     26.1919E-03     28.0845E-03
             193             819     26.1919E-03     28.0845E-03
             210             820     30.0987E-03     31.9884E-03
             193             820     30.0987E-03     31.9884E-03
             194             820     30.0987E-03     31.9884E-03
             211             820     30.0987E-03     31.9884E-03
             211             821     34.0380E-03     35.9371E-03
             195             821     34.0380E-03     35.9371E-03
             212             821     34.0380E-03     35.9371E-03
             194             821     34.0380E-03     35.9371E-03
             195             822     37.9945E-03     39.9120E-03
             212             822     37.9945E-03     39.9120E-03
             213             822     37.9945E-03     39.9120E-03
             196             822     37.9945E-03     39.9120E-03
             214             823     41.9732E-03     43.9129E-03
             196             823     41.9732E-03     43.9129E-03
             213             823     41.9732E-03     43.9129E-03
             197             823     41.9732E-03     43.9129E-03
             198             824     45.9824E-03     47.9664E-03
             214             824     45.9824E-03     47.9664E-03
             215             824     45.9824E-03     47.9664E-03
             197             824     45.9824E-03     47.9664E-03
             215             825     50.0281E-03     52.0824E-03
             216             825     50.0281E-03     52.0824E-03
             198             825     50.0281E-03     52.0824E-03
             199             825     50.0281E-03     52.0824E-03
             216             826     54.1984E-03     56.3779E-03
             200             826     54.1984E-03     56.3779E-03
             217             826     54.1984E-03     56.3779E-03
             199             826     54.1984E-03     56.3779E-03
             218             827     58.4705E-03     60.8452E-03
             201             827     58.4705E-03     60.8452E-03
             217             827     58.4705E-03     60.8452E-03
             200             827     58.4705E-03     60.8452E-03
             218             828     63.5774E-03     65.9026E-03
             219             828     63.5774E-03     65.9026E-03
             202             828     63.5774E-03     65.9026E-03
             201             828     63.5774E-03     65.9026E-03
             203             829     69.7405E-03     71.6924E-03
             220             829     69.7405E-03     71.6924E-03
             219             829     69.7405E-03     71.6924E-03
             202             829     69.7405E-03     71.6924E-03
             204             830     76.6000E-03     78.4519E-03
             221             830     76.6000E-03     78.4519E-03
             203             830     76.6000E-03     78.4519E-03
             220             830     76.6000E-03     78.4519E-03
             206             831     12.2866E-03     14.5357E-03
             223             831     12.2866E-03     14.5357E-03
             205             831     12.2866E-03     14.5357E-03
             222             831     12.2866E-03     14.5357E-03
             206             832     14.7346E-03     17.5603E-03
             207             832     14.7346E-03     17.5603E-03
             223             832     14.7346E-03     17.5603E-03
             224             832     14.7346E-03     17.5603E-03
             207             833     17.7651E-03     20.7508E-03
             208             833     17.7651E-03     20.7508E-03
             224             833     17.7651E-03     20.7508E-03
             225             833     17.7651E-03     20.7508E-03
             208             834     21.4039E-03     24.4836E-03
             209             834     21.4039E-03     24.4836E-03
             225             834     21.4039E-03     24.4836E-03
             226             834     21.4039E-03     24.4836E-03
             227             835     25.2349E-03     28.3137E-03
             210             835     25.2349E-03     28.3137E-03
             226             835     25.2349E-03     28.3137E-03
             209             835     25.2349E-03     28.3137E-03
             227             836     29.1303E-03     32.2212E-03
             210             836     29.1303E-03     32.2212E-03
             211             836     29.1303E-03     32.2212E-03
             228             836     29.1303E-03     32.2212E-03
             211             837     33.0413E-03     36.1485E-03
             212             837     33.0413E-03     36.1485E-03
             229             837     33.0413E-03     36.1485E-03
             228             837     33.0413E-03     36.1485E-03
             212             838     36.9519E-03     40.0707E-03
             230             838     36.9519E-03     40.0707E-03
             229             838     36.9519E-03     40.0707E-03
             213             838     36.9519E-03     40.0707E-03
             214             839     40.8503E-03     43.9871E-03
             231             839     40.8503E-03     43.9871E-03
             230             839     40.8503E-03     43.9871E-03
             213             839     40.8503E-03     43.9871E-03
             214             840     44.7529E-03     47.9029E-03
             232             840     44.7529E-03     47.9029E-03
             231             840     44.7529E-03     47.9029E-03
             215             840     44.7529E-03     47.9029E-03
             232             841     48.6722E-03     51.8681E-03
             215             841     48.6722E-03     51.8681E-03
             233             841     48.6722E-03     51.8681E-03
             216             841     48.6722E-03     51.8681E-03
             216             842     52.7299E-03     55.9733E-03
             233             842     52.7299E-03     55.9733E-03
             217             842     52.7299E-03     55.9733E-03
             234             842     52.7299E-03     55.9733E-03
             218             843     57.1632E-03     60.4928E-03
             217             843     57.1632E-03     60.4928E-03
             234             843     57.1632E-03     60.4928E-03
             235             843     57.1632E-03     60.4928E-03
             218             844     62.6189E-03     65.9227E-03
             236             844     62.6189E-03     65.9227E-03
             235             844     62.6189E-03     65.9227E-03
             219             844     62.6189E-03     65.9227E-03
             220             845     71.4304E-03     73.9573E-03
             237             845     71.4304E-03     73.9573E-03
             219             845     71.4304E-03     73.9573E-03
             236             845     71.4304E-03     73.9573E-03
             220             846     83.0280E-03     84.0966E-03
             238             846     83.0280E-03     84.0966E-03
             237             846     83.0280E-03     84.0966E-03
             221             846     83.0280E-03     84.0966E-03
             239             847     12.6972E-03     15.8808E-03
             240             847     12.6972E-03     15.8808E-03
             223             847     12.6972E-03     15.8808E-03
             222             847     12.6972E-03     15.8808E-03
             223             848     14.2687E-03     18.0018E-03
             240             848     14.2687E-03     18.0018E-03
             224             848     14.2687E-03     18.0018E-03
             241             848     14.2687E-03     18.0018E-03
             242             849     17.1442E-03     21.1911E-03
             241             849     17.1442E-03     21.1911E-03
             224             849     17.1442E-03     21.1911E-03
             225             849     17.1442E-03     21.1911E-03
             225             850     20.6923E-03     24.8711E-03
             242             850     20.6923E-03     24.8711E-03
             226             850     20.6923E-03     24.8711E-03
             243             850     20.6923E-03     24.8711E-03
             227             851     24.3919E-03     28.6694E-03
             226             851     24.3919E-03     28.6694E-03
             243             851     24.3919E-03     28.6694E-03
             244             851     24.3919E-03     28.6694E-03
             245             852     28.2087E-03     32.5150E-03
             228             852     28.2087E-03     32.5150E-03
             244             852     28.2087E-03     32.5150E-03
             227             852     28.2087E-03     32.5150E-03
             246             853     32.0300E-03     36.3552E-03
             228             853     32.0300E-03     36.3552E-03
             229             853     32.0300E-03     36.3552E-03
             245             853     32.0300E-03     36.3552E-03
             247             854     35.8368E-03     40.1710E-03
             229             854     35.8368E-03     40.1710E-03
             230             854     35.8368E-03     40.1710E-03
             246             854     35.8368E-03     40.1710E-03
             247             855     39.6185E-03     43.9521E-03
             231             855     39.6185E-03     43.9521E-03
             248             855     39.6185E-03     43.9521E-03
             230             855     39.6185E-03     43.9521E-03
             248             856     43.3710E-03     47.6957E-03
             249             856     43.3710E-03     47.6957E-03
             231             856     43.3710E-03     47.6957E-03
             232             856     43.3710E-03     47.6957E-03
             249             857     47.1748E-03     51.4597E-03
             250             857     47.1748E-03     51.4597E-03
             233             857     47.1748E-03     51.4597E-03
             232             857     47.1748E-03     51.4597E-03
             251             858     51.0918E-03     55.3219E-03
             250             858     51.0918E-03     55.3219E-03
             233             858     51.0918E-03     55.3219E-03
             234             858     51.0918E-03     55.3219E-03
             251             859     55.5673E-03     59.6831E-03
             235             859     55.5673E-03     59.6831E-03
             252             859     55.5673E-03     59.6831E-03
             234             859     55.5673E-03     59.6831E-03
             252             860     61.0203E-03     65.0510E-03
             235             860     61.0203E-03     65.0510E-03
             236             860     61.0203E-03     65.0510E-03
             253             860     61.0203E-03     65.0510E-03
             236             861     69.4396E-03     73.5144E-03
             254             861     69.4396E-03     73.5144E-03
             237             861     69.4396E-03     73.5144E-03
             253             861     69.4396E-03     73.5144E-03
             255             862     85.2500E-03     88.5767E-03
             238             862     85.2500E-03     88.5767E-03
             254             862     85.2500E-03     88.5767E-03
             237             862     85.2500E-03     88.5767E-03
             240             863     17.9924E-03     19.7105E-03
             257             863     17.9924E-03     19.7105E-03
             239             863     17.9924E-03     19.7105E-03
             256             863     17.9924E-03     19.7105E-03
             258             864     20.8048E-03     22.2777E-03
             257             864     20.8048E-03     22.2777E-03
             241             864     20.8048E-03     22.2777E-03
             240             864     20.8048E-03     22.2777E-03
             258             865     24.7413E-03     26.3774E-03
             242             865     24.7413E-03     26.3774E-03
             259             865     24.7413E-03     26.3774E-03
             241             865     24.7413E-03     26.3774E-03
             260             866     29.0980E-03     30.8500E-03
             242             866     29.0980E-03     30.8500E-03
             243             866     29.0980E-03     30.8500E-03
             259             866     29.0980E-03     30.8500E-03
             244             867     33.6990E-03     35.4797E-03
             243             867     33.6990E-03     35.4797E-03
             261             867     33.6990E-03     35.4797E-03
             260             867     33.6990E-03     35.4797E-03
             262             868     38.3800E-03     40.1360E-03
             261             868     38.3800E-03     40.1360E-03
             245             868     38.3800E-03     40.1360E-03
             244             868     38.3800E-03     40.1360E-03
             245             869     43.0880E-03     44.8324E-03
             262             869     43.0880E-03     44.8324E-03
             263             869     43.0880E-03     44.8324E-03
             246             869     43.0880E-03     44.8324E-03
             247             870     47.7872E-03     49.4898E-03
             263             870     47.7872E-03     49.4898E-03
             264             870     47.7872E-03     49.4898E-03
             246             870     47.7872E-03     49.4898E-03
             264             871     52.4379E-03     54.1327E-03
             248             871     52.4379E-03     54.1327E-03
             265             871     52.4379E-03     54.1327E-03
             247             871     52.4379E-03     54.1327E-03
             266             872     57.0579E-03     58.6873E-03
             248             872     57.0579E-03     58.6873E-03
             265             872     57.0579E-03     58.6873E-03
             249             872     57.0579E-03     58.6873E-03
             249             873     61.6154E-03     63.1810E-03
             267             873     61.6154E-03     63.1810E-03
             250             873     61.6154E-03     63.1810E-03
             266             873     61.6154E-03     63.1810E-03
             267             874     66.2075E-03     67.5856E-03
             250             874     66.2075E-03     67.5856E-03
             251             874     66.2075E-03     67.5856E-03
             268             874     66.2075E-03     67.5856E-03
             251             875     70.7351E-03     71.8972E-03
             268             875     70.7351E-03     71.8972E-03
             269             875     70.7351E-03     71.8972E-03
             252             875     70.7351E-03     71.8972E-03
             269             876     75.5601E-03     76.3147E-03
             253             876     75.5601E-03     76.3147E-03
             252             876     75.5601E-03     76.3147E-03
             270             876     75.5601E-03     76.3147E-03
             253             877     80.4456E-03     81.0510E-03
             271             877     80.4456E-03     81.0510E-03
             270             877     80.4456E-03     81.0510E-03
             254             877     80.4456E-03     81.0510E-03
             254             878     87.5789E-03     89.3515E-03
             272             878     87.5789E-03     89.3515E-03
             255             878     87.5789E-03     89.3515E-03
             271             878     87.5789E-03     89.3515E-03
             273             879     20.9321E-03     22.5831E-03
             274             879     20.9321E-03     22.5831E-03
             256             879     20.9321E-03     22.5831E-03
             257             879     20.9321E-03     22.5831E-03
             274             880     26.2584E-03     25.9646E-03
             275             880     26.2584E-03     25.9646E-03
             258             880     26.2584E-03     25.9646E-03
             257             880     26.2584E-03     25.9646E-03
             259             881     31.5959E-03     30.9887E-03
             275             881     31.5959E-03     30.9887E-03
             258             881     31.5959E-03     30.9887E-03
             276             881     31.5959E-03     30.9887E-03
             276             882     37.1475E-03     36.4828E-03
             277             882     37.1475E-03     36.4828E-03
             259             882     37.1475E-03     36.4828E-03
             260             882     37.1475E-03     36.4828E-03
             278             883     42.7652E-03     42.0615E-03
             260             883     42.7652E-03     42.0615E-03
             277             883     42.7652E-03     42.0615E-03
             261             883     42.7652E-03     42.0615E-03
             278             884     48.4754E-03     47.7320E-03
             262             884     48.4754E-03     47.7320E-03
             261             884     48.4754E-03     47.7320E-03
             279             884     48.4754E-03     47.7320E-03
             279             885     54.2190E-03     53.4395E-03
             263             885     54.2190E-03     53.4395E-03
             262             885     54.2190E-03     53.4395E-03
             280             885     54.2190E-03     53.4395E-03
             281             886     59.9829E-03     59.1622E-03
             280             886     59.9829E-03     59.1622E-03
             264             886     59.9829E-03     59.1622E-03
             263             886     59.9829E-03     59.1622E-03
             281             887     65.7306E-03     64.8844E-03
             265             887     65.7306E-03     64.8844E-03
             264             887     65.7306E-03     64.8844E-03
             282             887     65.7306E-03     64.8844E-03
             282             888     71.4794E-03     70.5738E-03
             265             888     71.4794E-03     70.5738E-03
             283             888     71.4794E-03     70.5738E-03
             266             888     71.4794E-03     70.5738E-03
             283             889     77.1587E-03     76.2141E-03
             266             889     77.1587E-03     76.2141E-03
             284             889     77.1587E-03     76.2141E-03
             267             889     77.1587E-03     76.2141E-03
             285             890     82.7774E-03     81.7045E-03
             267             890     82.7774E-03     81.7045E-03
             268             890     82.7774E-03     81.7045E-03
             284             890     82.7774E-03     81.7045E-03
             268             891     88.1015E-03     86.8915E-03
             269             891     88.1015E-03     86.8915E-03
             285             891     88.1015E-03     86.8915E-03
             286             891     88.1015E-03     86.8915E-03
             269             892     92.6095E-03     91.3060E-03
             270             892     92.6095E-03     91.3060E-03
             286             892     92.6095E-03     91.3060E-03
             287             892     92.6095E-03     91.3060E-03
             271             893     95.4159E-03     93.9721E-03
             287             893     95.4159E-03     93.9721E-03
             288             893     95.4159E-03     93.9721E-03
             270             893     95.4159E-03     93.9721E-03
             289             894     95.0453E-03     93.6122E-03
             272             894     95.0453E-03     93.6122E-03
             271             894     95.0453E-03     93.6122E-03
             288             894     95.0453E-03     93.6122E-03
             290             895     18.1422E-03     20.9511E-03
             291             895     18.1422E-03     20.9511E-03
             274             895     18.1422E-03     20.9511E-03
             273             895     18.1422E-03     20.9511E-03
             275             896     23.8188E-03     25.5830E-03
             274             896     23.8188E-03     25.5830E-03
             291             896     23.8188E-03     25.5830E-03
             292             896     23.8188E-03     25.5830E-03
             276             897     29.9276E-03     30.7462E-03
             275             897     29.9276E-03     30.7462E-03
             292             897     29.9276E-03     30.7462E-03
             293             897     29.9276E-03     30.7462E-03
             276             898     35.7711E-03     36.3946E-03
             294             898     35.7711E-03     36.3946E-03
             277             898     35.7711E-03     36.3946E-03
             293             898     35.7711E-03     36.3946E-03
             294             899     41.5827E-03     42.1785E-03
             278             899     41.5827E-03     42.1785E-03
             295             899     41.5827E-03     42.1785E-03
             277             899     41.5827E-03     42.1785E-03
             278             900     47.4599E-03     48.0596E-03
             295             900     47.4599E-03     48.0596E-03
             296             900     47.4599E-03     48.0596E-03
             279             900     47.4599E-03     48.0596E-03
             279             901     53.3637E-03     53.9696E-03
             296             901     53.3637E-03     53.9696E-03
             297             901     53.3637E-03     53.9696E-03
             280             901     53.3637E-03     53.9696E-03
             280             902     59.3117E-03     59.9167E-03
             298             902     59.3117E-03     59.9167E-03
             281             902     59.3117E-03     59.9167E-03
             297             902     59.3117E-03     59.9167E-03
             299             903     65.3043E-03     65.8957E-03
             298             903     65.3043E-03     65.8957E-03
             282             903     65.3043E-03     65.8957E-03
             281             903     65.3043E-03     65.8957E-03
             300             904     71.3326E-03     71.9276E-03
             282             904     71.3326E-03     71.9276E-03
             299             904     71.3326E-03     71.9276E-03
             283             904     71.3326E-03     71.9276E-03
             283             905     77.4431E-03     78.0350E-03
             284             905     77.4431E-03     78.0350E-03
             301             905     77.4431E-03     78.0350E-03
             300             905     77.4431E-03     78.0350E-03
             285             906     83.5539E-03     84.2195E-03
             284             906     83.5539E-03     84.2195E-03
             302             906     83.5539E-03     84.2195E-03
             301             906     83.5539E-03     84.2195E-03
             285             907     89.7377E-03     90.4925E-03
             303             907     89.7377E-03     90.4925E-03
             286             907     89.7377E-03     90.4925E-03
             302             907     89.7377E-03     90.4925E-03
             286             908     95.5341E-03     96.6017E-03
             304             908     95.5341E-03     96.6017E-03
             287             908     95.5341E-03     96.6017E-03
             303             908     95.5341E-03     96.6017E-03
             287             909     99.5445E-03     101.395E-03
             305             909     99.5445E-03     101.395E-03
             304             909     99.5445E-03     101.395E-03
             288             909     99.5445E-03     101.395E-03
             306             910     102.980E-03     104.463E-03
             288             910     102.980E-03     104.463E-03
             305             910     102.980E-03     104.463E-03
             289             910     102.980E-03     104.463E-03
             307             911     16.8455E-03     19.5895E-03
             308             911     16.8455E-03     19.5895E-03
             290             911     16.8455E-03     19.5895E-03
             291             911     16.8455E-03     19.5895E-03
             291             912     22.5412E-03     25.5632E-03
             309             912     22.5412E-03     25.5632E-03
             292             912     22.5412E-03     25.5632E-03
             308             912     22.5412E-03     25.5632E-03
             309             913     28.5892E-03     30.9325E-03
             292             913     28.5892E-03     30.9325E-03
             293             913     28.5892E-03     30.9325E-03
             310             913     28.5892E-03     30.9325E-03
             294             914     34.5218E-03     36.5462E-03
             311             914     34.5218E-03     36.5462E-03
             310             914     34.5218E-03     36.5462E-03
             293             914     34.5218E-03     36.5462E-03
             311             915     40.4940E-03     42.4958E-03
             294             915     40.4940E-03     42.4958E-03
             312             915     40.4940E-03     42.4958E-03
             295             915     40.4940E-03     42.4958E-03
             296             916     46.4551E-03     48.4711E-03
             295             916     46.4551E-03     48.4711E-03
             313             916     46.4551E-03     48.4711E-03
             312             916     46.4551E-03     48.4711E-03
             297             917     52.4606E-03     54.5009E-03
             313             917     52.4606E-03     54.5009E-03
             314             917     52.4606E-03     54.5009E-03
             296             917     52.4606E-03     54.5009E-03
             297             918     58.4932E-03     60.5463E-03
             315             918     58.4932E-03     60.5463E-03
             298             918     58.4932E-03     60.5463E-03
             314             918     58.4932E-03     60.5463E-03
             316             919     64.5660E-03     66.6311E-03
             315             919     64.5660E-03     66.6311E-03
             298             919     64.5660E-03     66.6311E-03
             299             919     64.5660E-03     66.6311E-03
             317             920     70.6882E-03     72.7707E-03
             316             920     70.6882E-03     72.7707E-03
             300             920     70.6882E-03     72.7707E-03
             299             920     70.6882E-03     72.7707E-03
             300             921     76.8606E-03     78.9988E-03
             301             921     76.8606E-03     78.9988E-03
             318             921     76.8606E-03     78.9988E-03
             317             921     76.8606E-03     78.9988E-03
             319             922     83.1417E-03     85.4102E-03
             301             922     83.1417E-03     85.4102E-03
             318             922     83.1417E-03     85.4102E-03
             302             922     83.1417E-03     85.4102E-03
             302             923     89.4803E-03     92.0357E-03
             303             923     89.4803E-03     92.0357E-03
             319             923     89.4803E-03     92.0357E-03
             320             923     89.4803E-03     92.0357E-03
             321             924     96.3429E-03     99.1286E-03
             303             924     96.3429E-03     99.1286E-03
             304             924     96.3429E-03     99.1286E-03
             320             924     96.3429E-03     99.1286E-03
             304             925     103.367E-03     106.261E-03
             305             925     103.367E-03     106.261E-03
             321             925     103.367E-03     106.261E-03
             322             925     103.367E-03     106.261E-03
             322             926     110.096E-03     113.026E-03
             305             926     110.096E-03     113.026E-03
             323             926     110.096E-03     113.026E-03
             306             926     110.096E-03     113.026E-03
             308             927     16.7300E-03     20.6741E-03
             324             927     16.7300E-03     20.6741E-03
             325             927     16.7300E-03     20.6741E-03
             307             927     16.7300E-03     20.6741E-03
             326             928     22.2967E-03     25.8794E-03
             309             928     22.2967E-03     25.8794E-03
             325             928     22.2967E-03     25.8794E-03
             308             928     22.2967E-03     25.8794E-03
             327             929     27.6622E-03     31.2432E-03
             326             929     27.6622E-03     31.2432E-03
             310             929     27.6622E-03     31.2432E-03
             309             929     27.6622E-03     31.2432E-03
             327             930     33.5515E-03     37.0121E-03
             310             930     33.5515E-03     37.0121E-03
             328             930     33.5515E-03     37.0121E-03
             311             930     33.5515E-03     37.0121E-03
             328             931     39.4998E-03     42.9446E-03
             311             931     39.4998E-03     42.9446E-03
             329             931     39.4998E-03     42.9446E-03
             312             931     39.4998E-03     42.9446E-03
             313             932     45.4786E-03     48.9595E-03
             330             932     45.4786E-03     48.9595E-03
             312             932     45.4786E-03     48.9595E-03
             329             932     45.4786E-03     48.9595E-03
             314             933     51.4744E-03     54.9782E-03
             313             933     51.4744E-03     54.9782E-03
             330             933     51.4744E-03     54.9782E-03
             331             933     51.4744E-03     54.9782E-03
             331             934     57.4769E-03     61.0059E-03
             314             934     57.4769E-03     61.0059E-03
             332             934     57.4769E-03     61.0059E-03
             315             934     57.4769E-03     61.0059E-03
             315             935     63.4837E-03     67.0266E-03
             332             935     63.4837E-03     67.0266E-03
             333             935     63.4837E-03     67.0266E-03
             316             935     63.4837E-03     67.0266E-03
             333             936     69.4991E-03     73.0588E-03
             317             936     69.4991E-03     73.0588E-03
             316             936     69.4991E-03     73.0588E-03
             334             936     69.4991E-03     73.0588E-03
             318             937     75.5134E-03     79.1202E-03
             335             937     75.5134E-03     79.1202E-03
             317             937     75.5134E-03     79.1202E-03
             334             937     75.5134E-03     79.1202E-03
             335             938     81.5972E-03     85.2833E-03
             319             938     81.5972E-03     85.2833E-03
             318             938     81.5972E-03     85.2833E-03
             336             938     81.5972E-03     85.2833E-03
             320             939     87.8717E-03     91.7534E-03
             337             939     87.8717E-03     91.7534E-03
             319             939     87.8717E-03     91.7534E-03
             336             939     87.8717E-03     91.7534E-03
             337             940     94.7346E-03     98.8450E-03
             321             940     94.7346E-03     98.8450E-03
             338             940     94.7346E-03     98.8450E-03
             320             940     94.7346E-03     98.8450E-03
             338             941     104.604E-03     108.131E-03
             321             941     104.604E-03     108.131E-03
             339             941     104.604E-03     108.131E-03
             322             941     104.604E-03     108.131E-03
             339             942     116.443E-03     118.212E-03
             323             942     116.443E-03     118.212E-03
             322             942     116.443E-03     118.212E-03
             340             942     116.443E-03     118.212E-03
             342             943     18.4576E-03     22.4258E-03
             324             943     18.4576E-03     22.4258E-03
             341             943     18.4576E-03     22.4258E-03
             325             943     18.4576E-03     22.4258E-03
             343             944     22.2937E-03     26.6238E-03
             326             944     22.2937E-03     26.6238E-03
             325             944     22.2937E-03     26.6238E-03
             342             944     22.2937E-03     26.6238E-03
             327             945     27.2490E-03     31.9020E-03
             343             945     27.2490E-03     31.9020E-03
             344             945     27.2490E-03     31.9020E-03
             326             945     27.2490E-03     31.9020E-03
             345             946     32.8871E-03     37.7406E-03
             344             946     32.8871E-03     37.7406E-03
             328             946     32.8871E-03     37.7406E-03
             327             946     32.8871E-03     37.7406E-03
             346             947     38.6895E-03     43.6026E-03
             345             947     38.6895E-03     43.6026E-03
             328             947     38.6895E-03     43.6026E-03
             329             947     38.6895E-03     43.6026E-03
             329             948     44.5915E-03     49.5381E-03
             330             948     44.5915E-03     49.5381E-03
             347             948     44.5915E-03     49.5381E-03
             346             948     44.5915E-03     49.5381E-03
             331             949     50.4753E-03     55.4564E-03
             330             949     50.4753E-03     55.4564E-03
             347             949     50.4753E-03     55.4564E-03
             348             949     50.4753E-03     55.4564E-03
             348             950     56.3445E-03     61.3445E-03
             349             950     56.3445E-03     61.3445E-03
             331             950     56.3445E-03     61.3445E-03
             332             950     56.3445E-03     61.3445E-03
             333             951     62.1663E-03     67.1941E-03
             332             951     62.1663E-03     67.1941E-03
             349             951     62.1663E-03     67.1941E-03
             350             951     62.1663E-03     67.1941E-03
             350             952     67.9293E-03     72.9697E-03
             333             952     67.9293E-03     72.9697E-03
             334             952     67.9293E-03     72.9697E-03
             351             952     67.9293E-03     72.9697E-03
             352             953     73.6696E-03     78.7010E-03
             335             953     73.6696E-03     78.7010E-03
             334             953     73.6696E-03     78.7010E-03
             351             953     73.6696E-03     78.7010E-03
             353             954     79.3897E-03     84.3859E-03
             336             954     79.3897E-03     84.3859E-03
             335             954     79.3897E-03     84.3859E-03
             352             954     79.3897E-03     84.3859E-03
             337             955     85.4246E-03     90.3081E-03
             353             955     85.4246E-03     90.3081E-03
             354             955     85.4246E-03     90.3081E-03
             336             955     85.4246E-03     90.3081E-03
             354             956     92.1091E-03     96.8754E-03
             338             956     92.1091E-03     96.8754E-03
             355             956     92.1091E-03     96.8754E-03
             337             956     92.1091E-03     96.8754E-03
             338             957     101.433E-03     106.111E-03
             356             957     101.433E-03     106.111E-03
             339             957     101.433E-03     106.111E-03
             355             957     101.433E-03     106.111E-03
             339             958     117.708E-03     121.376E-03
             357             958     117.708E-03     121.376E-03
             356             958     117.708E-03     121.376E-03
             340             958     117.708E-03     121.376E-03
             341             959     25.5966E-03     27.3751E-03
             359             959     25.5966E-03     27.3751E-03
             342             959     25.5966E-03     27.3751E-03
             358             959     25.5966E-03     27.3751E-03
             343             960     29.6920E-03     31.6914E-03
             342             960     29.6920E-03     31.6914E-03
             359             960     29.6920E-03     31.6914E-03
             360             960     29.6920E-03     31.6914E-03
             360             961     35.1848E-03     37.6197E-03
             361             961     35.1848E-03     37.6197E-03
             343             961     35.1848E-03     37.6197E-03
             344             961     35.1848E-03     37.6197E-03
             362             962     41.3556E-03     44.0362E-03
             345             962     41.3556E-03     44.0362E-03
             361             962     41.3556E-03     44.0362E-03
             344             962     41.3556E-03     44.0362E-03
             346             963     47.8106E-03     50.5799E-03
             363             963     47.8106E-03     50.5799E-03
             362             963     47.8106E-03     50.5799E-03
             345             963     47.8106E-03     50.5799E-03
             346             964     54.4053E-03     57.1732E-03
             347             964     54.4053E-03     57.1732E-03
             363             964     54.4053E-03     57.1732E-03
             364             964     54.4053E-03     57.1732E-03
             365             965     61.0104E-03     63.7639E-03
             347             965     61.0104E-03     63.7639E-03
             364             965     61.0104E-03     63.7639E-03
             348             965     61.0104E-03     63.7639E-03
             366             966     67.6034E-03     70.3228E-03
             348             966     67.6034E-03     70.3228E-03
             365             966     67.6034E-03     70.3228E-03
             349             966     67.6034E-03     70.3228E-03
             349             967     74.1037E-03     76.8086E-03
             367             967     74.1037E-03     76.8086E-03
             366             967     74.1037E-03     76.8086E-03
             350             967     74.1037E-03     76.8086E-03
             368             968     80.5384E-03     83.1598E-03
             350             968     80.5384E-03     83.1598E-03
             351             968     80.5384E-03     83.1598E-03
             367             968     80.5384E-03     83.1598E-03
             369             969     86.8051E-03     89.3427E-03
             368             969     86.8051E-03     89.3427E-03
             352             969     86.8051E-03     89.3427E-03
             351             969     86.8051E-03     89.3427E-03
             352             970     92.9822E-03     95.2323E-03
             369             970     92.9822E-03     95.2323E-03
             353             970     92.9822E-03     95.2323E-03
             370             970     92.9822E-03     95.2323E-03
             370             971     98.9569E-03     100.852E-03
             371             971     98.9569E-03     100.852E-03
             354             971     98.9569E-03     100.852E-03
             353             971     98.9569E-03     100.852E-03
             371             972     105.046E-03     106.313E-03
             372             972     105.046E-03     106.313E-03
             355             972     105.046E-03     106.313E-03
             354             972     105.046E-03     106.313E-03
             373             973     111.172E-03     111.966E-03
             372             973     111.172E-03     111.966E-03
             356             973     111.172E-03     111.966E-03
             355             973     111.172E-03     111.966E-03
             356             974     119.716E-03     121.786E-03
             374             974     119.716E-03     121.786E-03
             373             974     119.716E-03     121.786E-03
             357             974     119.716E-03     121.786E-03
             359             975     28.4806E-03     31.1748E-03
             358             975     28.4806E-03     31.1748E-03
             376             975     28.4806E-03     31.1748E-03
             375             975     28.4806E-03     31.1748E-03
             360             976     35.2925E-03     35.8175E-03
             376             976     35.2925E-03     35.8175E-03
             359             976     35.2925E-03     35.8175E-03
             377             976     35.2925E-03     35.8175E-03
             377             977     42.1398E-03     42.3965E-03
             361             977     42.1398E-03     42.3965E-03
             378             977     42.1398E-03     42.3965E-03
             360             977     42.1398E-03     42.3965E-03
             378             978     49.3843E-03     49.6595E-03
             361             978     49.3843E-03     49.6595E-03
             379             978     49.3843E-03     49.6595E-03
             362             978     49.3843E-03     49.6595E-03
             379             979     56.7823E-03     57.0862E-03
             363             979     56.7823E-03     57.0862E-03
             380             979     56.7823E-03     57.0862E-03
             362             979     56.7823E-03     57.0862E-03
             380             980     64.3102E-03     64.5944E-03
             381             980     64.3102E-03     64.5944E-03
             363             980     64.3102E-03     64.5944E-03
             364             980     64.3102E-03     64.5944E-03
             364             981     71.8854E-03     72.1286E-03
             382             981     71.8854E-03     72.1286E-03
             365             981     71.8854E-03     72.1286E-03
             381             981     71.8854E-03     72.1286E-03
             366             982     79.4735E-03     79.6767E-03
             365             982     79.4735E-03     79.6767E-03
             383             982     79.4735E-03     79.6767E-03
             382             982     79.4735E-03     79.6767E-03
             366             983     87.0546E-03     87.1803E-03
             384             983     87.0546E-03     87.1803E-03
             367             983     87.0546E-03     87.1803E-03
             383             983     87.0546E-03     87.1803E-03
             385             984     94.5717E-03     94.6284E-03
             384             984     94.5717E-03     94.6284E-03
             367             984     94.5717E-03     94.6284E-03
             368             984     94.5717E-03     94.6284E-03
             386             985     102.015E-03     101.911E-03
             368             985     102.015E-03     101.911E-03
             385             985     102.015E-03     101.911E-03
             369             985     102.015E-03     101.911E-03
             387             986     109.247E-03     108.964E-03
             370             986     109.247E-03     108.964E-03
             369             986     109.247E-03     108.964E-03
             386             986     109.247E-03     108.964E-03
             370             987     116.033E-03     115.497E-03
             371             987     116.033E-03     115.497E-03
             387             987     116.033E-03     115.497E-03
             388             987     116.033E-03     115.497E-03
             389             988     122.054E-03     121.180E-03
             371             988     122.054E-03     121.180E-03
             372             988     122.054E-03     121.180E-03
             388             988     122.054E-03     121.180E-03
             372             989     126.335E-03     125.476E-03
             373             989     126.335E-03     125.476E-03
             390             989     126.335E-03     125.476E-03
             389             989     126.335E-03     125.476E-03
             374             990     128.427E-03     127.052E-03
             373             990     128.427E-03     127.052E-03
             391             990     128.427E-03     127.052E-03
             390             990     128.427E-03     127.052E-03
             392             991     24.3746E-03     28.7312E-03
             376             991     24.3746E-03     28.7312E-03
             393             991     24.3746E-03     28.7312E-03
             375             991     24.3746E-03     28.7312E-03
             376             992     32.1569E-03     35.0454E-03
             377             992     32.1569E-03     35.0454E-03
             393             992     32.1569E-03     35.0454E-03
             394             992     32.1569E-03     35.0454E-03
             378             993     40.2451E-03     41.8109E-03
             394             993     40.2451E-03     41.8109E-03
             377             993     40.2451E-03     41.8109E-03
             395             993     40.2451E-03     41.8109E-03
             395             994     48.0671E-03     49.3666E-03
             396             994     48.0671E-03     49.3666E-03
             378             994     48.0671E-03     49.3666E-03
             379             994     48.0671E-03     49.3666E-03
             380             995     55.8595E-03     57.0641E-03
             397             995     55.8595E-03     57.0641E-03
             396             995     55.8595E-03     57.0641E-03
             379             995     55.8595E-03     57.0641E-03
             398             996     63.6783E-03     64.8663E-03
             397             996     63.6783E-03     64.8663E-03
             380             996     63.6783E-03     64.8663E-03
             381             996     63.6783E-03     64.8663E-03
             399             997     71.5476E-03     72.7442E-03
             382             997     71.5476E-03     72.7442E-03
             398             997     71.5476E-03     72.7442E-03
             381             997     71.5476E-03     72.7442E-03
             383             998     79.4733E-03     80.6565E-03
             400             998     79.4733E-03     80.6565E-03
             382             998     79.4733E-03     80.6565E-03
             399             998     79.4733E-03     80.6565E-03
             384             999     87.4402E-03     88.6309E-03
             383             999     87.4402E-03     88.6309E-03
             401             999     87.4402E-03     88.6309E-03
             400             999     87.4402E-03     88.6309E-03
             384            1000     95.4808E-03     96.6502E-03
             385            1000     95.4808E-03     96.6502E-03
             402            1000     95.4808E-03     96.6502E-03
             401            1000     95.4808E-03     96.6502E-03
             386            1001     103.524E-03     104.744E-03
             403            1001     103.524E-03     104.744E-03
             385            1001     103.524E-03     104.744E-03
             402            1001     103.524E-03     104.744E-03
             386            1002     111.605E-03     112.856E-03
             387            1002     111.605E-03     112.856E-03
             404            1002     111.605E-03     112.856E-03
             403            1002     111.605E-03     112.856E-03
             388            1003     119.458E-03     120.916E-03
             404            1003     119.458E-03     120.916E-03
             405            1003     119.458E-03     120.916E-03
             387            1003     119.458E-03     120.916E-03
             389            1004     126.560E-03     128.468E-03
             405            1004     126.560E-03     128.468E-03
             388            1004     126.560E-03     128.468E-03
             406            1004     126.560E-03     128.468E-03
             407            1005     132.294E-03     134.551E-03
             389            1005     132.294E-03     134.551E-03
             390            1005     132.294E-03     134.551E-03
             406            1005     132.294E-03     134.551E-03
             391            1006     136.906E-03     139.003E-03
             408            1006     136.906E-03     139.003E-03
             407            1006     136.906E-03     139.003E-03
             390            1006     136.906E-03     139.003E-03
             410            1007     22.3769E-03     26.2649E-03
             392            1007     22.3769E-03     26.2649E-03
             393            1007     22.3769E-03     26.2649E-03
             409            1007     22.3769E-03     26.2649E-03
             411            1008     30.4279E-03     34.3447E-03
             410            1008     30.4279E-03     34.3447E-03
             393            1008     30.4279E-03     34.3447E-03
             394            1008     30.4279E-03     34.3447E-03
             411            1009     38.8306E-03     41.8370E-03
             395            1009     38.8306E-03     41.8370E-03
             394            1009     38.8306E-03     41.8370E-03
             412            1009     38.8306E-03     41.8370E-03
             413            1010     47.0010E-03     49.3698E-03
             412            1010     47.0010E-03     49.3698E-03
             395            1010     47.0010E-03     49.3698E-03
             396            1010     47.0010E-03     49.3698E-03
             396            1011     54.9995E-03     57.2161E-03
             397            1011     54.9995E-03     57.2161E-03
             414            1011     54.9995E-03     57.2161E-03
             413            1011     54.9995E-03     57.2161E-03
             398            1012     63.0168E-03     65.1998E-03
             397            1012     63.0168E-03     65.1998E-03
             414            1012     63.0168E-03     65.1998E-03
             415            1012     63.0168E-03     65.1998E-03
             415            1013     71.0625E-03     73.2545E-03
             398            1013     71.0625E-03     73.2545E-03
             399            1013     71.0625E-03     73.2545E-03
             416            1013     71.0625E-03     73.2545E-03
             416            1014     79.1623E-03     81.3836E-03
             399            1014     79.1623E-03     81.3836E-03
             400            1014     79.1623E-03     81.3836E-03
             417            1014     79.1623E-03     81.3836E-03
             418            1015     87.3365E-03     89.5886E-03
             400            1015     87.3365E-03     89.5886E-03
             417            1015     87.3365E-03     89.5886E-03
             401            1015     87.3365E-03     89.5886E-03
             401            1016     95.5772E-03     97.9055E-03
             402            1016     95.5772E-03     97.9055E-03
             419            1016     95.5772E-03     97.9055E-03
             418            1016     95.5772E-03     97.9055E-03
             403            1017     103.942E-03     106.389E-03
             402            1017     103.942E-03     106.389E-03
             420            1017     103.942E-03     106.389E-03
             419            1017     103.942E-03     106.389E-03
             421            1018     112.355E-03     115.068E-03
             404            1018     112.355E-03     115.068E-03
             420            1018     112.355E-03     115.068E-03
             403            1018     112.355E-03     115.068E-03
             405            1019     120.984E-03     124.019E-03
             421            1019     120.984E-03     124.019E-03
             404            1019     120.984E-03     124.019E-03
             422            1019     120.984E-03     124.019E-03
             405            1020     129.458E-03     132.960E-03
             423            1020     129.458E-03     132.960E-03
             422            1020     129.458E-03     132.960E-03
             406            1020     129.458E-03     132.960E-03
             423            1021     137.098E-03     141.017E-03
             406            1021     137.098E-03     141.017E-03
             407            1021     137.098E-03     141.017E-03
             424            1021     137.098E-03     141.017E-03
             408            1022     144.548E-03     147.384E-03
             424            1022     144.548E-03     147.384E-03
             425            1022     144.548E-03     147.384E-03
             407            1022     144.548E-03     147.384E-03
             410            1023     21.6130E-03     26.3462E-03
             409            1023     21.6130E-03     26.3462E-03
             426            1023     21.6130E-03     26.3462E-03
             427            1023     21.6130E-03     26.3462E-03
             427            1024     30.0341E-03     34.4057E-03
             410            1024     30.0341E-03     34.4057E-03
             428            1024     30.0341E-03     34.4057E-03
             411            1024     30.0341E-03     34.4057E-03
             428            1025     38.1681E-03     42.0303E-03
             412            1025     38.1681E-03     42.0303E-03
             429            1025     38.1681E-03     42.0303E-03
             411            1025     38.1681E-03     42.0303E-03
             412            1026     46.1673E-03     49.5572E-03
             413            1026     46.1673E-03     49.5572E-03
             430            1026     46.1673E-03     49.5572E-03
             429            1026     46.1673E-03     49.5572E-03
             431            1027     54.2169E-03     57.4526E-03
             414            1027     54.2169E-03     57.4526E-03
             413            1027     54.2169E-03     57.4526E-03
             430            1027     54.2169E-03     57.4526E-03
             415            1028     62.2526E-03     65.4706E-03
             431            1028     62.2526E-03     65.4706E-03
             432            1028     62.2526E-03     65.4706E-03
             414            1028     62.2526E-03     65.4706E-03
             432            1029     70.3271E-03     73.5624E-03
             416            1029     70.3271E-03     73.5624E-03
             433            1029     70.3271E-03     73.5624E-03
             415            1029     70.3271E-03     73.5624E-03
             416            1030     78.4356E-03     81.7083E-03
             433            1030     78.4356E-03     81.7083E-03
             417            1030     78.4356E-03     81.7083E-03
             434            1030     78.4356E-03     81.7083E-03
             434            1031     86.5925E-03     89.9080E-03
             417            1031     86.5925E-03     89.9080E-03
             418            1031     86.5925E-03     89.9080E-03
             435            1031     86.5925E-03     89.9080E-03
             435            1032     94.8062E-03     98.2101E-03
             418            1032     94.8062E-03     98.2101E-03
             436            1032     94.8062E-03     98.2101E-03
             419            1032     94.8062E-03     98.2101E-03
             437            1033     103.106E-03     106.649E-03
             419            1033     103.106E-03     106.649E-03
             420            1033     103.106E-03     106.649E-03
             436            1033     103.106E-03     106.649E-03
             438            1034     111.595E-03     115.399E-03
             420            1034     111.595E-03     115.399E-03
             437            1034     111.595E-03     115.399E-03
             421            1034     111.595E-03     115.399E-03
             438            1035     120.326E-03     124.503E-03
             422            1035     120.326E-03     124.503E-03
             421            1035     120.326E-03     124.503E-03
             439            1035     120.326E-03     124.503E-03
             423            1036     130.135E-03     134.423E-03
             439            1036     130.135E-03     134.423E-03
             440            1036     130.135E-03     134.423E-03
             422            1036     130.135E-03     134.423E-03
             423            1037     140.742E-03     144.772E-03
             441            1037     140.742E-03     144.772E-03
             424            1037     140.742E-03     144.772E-03
             440            1037     140.742E-03     144.772E-03
             424            1038     150.653E-03     154.288E-03
             442            1038     150.653E-03     154.288E-03
             441            1038     150.653E-03     154.288E-03
             425            1038     150.653E-03     154.288E-03
             443            1039     22.7918E-03     28.3642E-03
             427            1039     22.7918E-03     28.3642E-03
             426            1039     22.7918E-03     28.3642E-03
             444            1039     22.7918E-03     28.3642E-03
             428            1040     30.7315E-03     35.4416E-03
             427            1040     30.7315E-03     35.4416E-03
             444            1040     30.7315E-03     35.4416E-03
             445            1040     30.7315E-03     35.4416E-03
             446            1041     38.0238E-03     42.2833E-03
             429            1041     38.0238E-03     42.2833E-03
             428            1041     38.0238E-03     42.2833E-03
             445            1041     38.0238E-03     42.2833E-03
             430            1042     45.6707E-03     49.9526E-03
             447            1042     45.6707E-03     49.9526E-03
             429            1042     45.6707E-03     49.9526E-03
             446            1042     45.6707E-03     49.9526E-03
             447            1043     53.5195E-03     57.7658E-03
             431            1043     53.5195E-03     57.7658E-03
             430            1043     53.5195E-03     57.7658E-03
             448            1043     53.5195E-03     57.7658E-03
             448            1044     61.4324E-03     65.7033E-03
             449            1044     61.4324E-03     65.7033E-03
             431            1044     61.4324E-03     65.7033E-03
             432            1044     61.4324E-03     65.7033E-03
             450            1045     69.3799E-03     73.6897E-03
             433            1045     69.3799E-03     73.6897E-03
             432            1045     69.3799E-03     73.6897E-03
             449            1045     69.3799E-03     73.6897E-03
             451            1046     77.3434E-03     81.6767E-03
             434            1046     77.3434E-03     81.6767E-03
             450            1046     77.3434E-03     81.6767E-03
             433            1046     77.3434E-03     81.6767E-03
             452            1047     85.3031E-03     89.6763E-03
             434            1047     85.3031E-03     89.6763E-03
             451            1047     85.3031E-03     89.6763E-03
             435            1047     85.3031E-03     89.6763E-03
             435            1048     93.2914E-03     97.6851E-03
             452            1048     93.2914E-03     97.6851E-03
             453            1048     93.2914E-03     97.6851E-03
             436            1048     93.2914E-03     97.6851E-03
             436            1049     101.302E-03     105.785E-03
             453            1049     101.302E-03     105.785E-03
             454            1049     101.302E-03     105.785E-03
             437            1049     101.302E-03     105.785E-03
             437            1050     109.502E-03     114.066E-03
             454            1050     109.502E-03     114.066E-03
             455            1050     109.502E-03     114.066E-03
             438            1050     109.502E-03     114.066E-03
             455            1051     118.125E-03     122.880E-03
             456            1051     118.125E-03     122.880E-03
             439            1051     118.125E-03     122.880E-03
             438            1051     118.125E-03     122.880E-03
             440            1052     127.779E-03     132.675E-03
             456            1052     127.779E-03     132.675E-03
             457            1052     127.779E-03     132.675E-03
             439            1052     127.779E-03     132.675E-03
             458            1053     141.033E-03     145.117E-03
             440            1053     141.033E-03     145.117E-03
             441            1053     141.033E-03     145.117E-03
             457            1053     141.033E-03     145.117E-03
             442            1054     156.073E-03     158.427E-03
             458            1054     156.073E-03     158.427E-03
             459            1054     156.073E-03     158.427E-03
             441            1054     156.073E-03     158.427E-03
             461            1055     26.4790E-03     30.8803E-03
             444            1055     26.4790E-03     30.8803E-03
             443            1055     26.4790E-03     30.8803E-03
             460            1055     26.4790E-03     30.8803E-03
             445            1056     32.0427E-03     36.3809E-03
             462            1056     32.0427E-03     36.3809E-03
             461            1056     32.0427E-03     36.3809E-03
             444            1056     32.0427E-03     36.3809E-03
             462            1057     38.2780E-03     43.1115E-03
             445            1057     38.2780E-03     43.1115E-03
             463            1057     38.2780E-03     43.1115E-03
             446            1057     38.2780E-03     43.1115E-03
             463            1058     45.5288E-03     50.6184E-03
             464            1058     45.5288E-03     50.6184E-03
             446            1058     45.5288E-03     50.6184E-03
             447            1058     45.5288E-03     50.6184E-03
             465            1059     53.0041E-03     58.2806E-03
             447            1059     53.0041E-03     58.2806E-03
             464            1059     53.0041E-03     58.2806E-03
             448            1059     53.0041E-03     58.2806E-03
             466            1060     60.6802E-03     66.0262E-03
             449            1060     60.6802E-03     66.0262E-03
             465            1060     60.6802E-03     66.0262E-03
             448            1060     60.6802E-03     66.0262E-03
             467            1061     68.3766E-03     73.7662E-03
             466            1061     68.3766E-03     73.7662E-03
             449            1061     68.3766E-03     73.7662E-03
             450            1061     68.3766E-03     73.7662E-03
             468            1062     76.0609E-03     81.4786E-03
             451            1062     76.0609E-03     81.4786E-03
             467            1062     76.0609E-03     81.4786E-03
             450            1062     76.0609E-03     81.4786E-03
             452            1063     83.7111E-03     89.1271E-03
             469            1063     83.7111E-03     89.1271E-03
             451            1063     83.7111E-03     89.1271E-03
             468            1063     83.7111E-03     89.1271E-03
             469            1064     91.3030E-03     96.7077E-03
             453            1064     91.3030E-03     96.7077E-03
             470            1064     91.3030E-03     96.7077E-03
             452            1064     91.3030E-03     96.7077E-03
             471            1065     98.9347E-03     104.251E-03
             454            1065     98.9347E-03     104.251E-03
             453            1065     98.9347E-03     104.251E-03
             470            1065     98.9347E-03     104.251E-03
             455            1066     106.637E-03     111.834E-03
             472            1066     106.637E-03     111.834E-03
             471            1066     106.637E-03     111.834E-03
             454            1066     106.637E-03     111.834E-03
             473            1067     114.878E-03     119.847E-03
             456            1067     114.878E-03     119.847E-03
             455            1067     114.878E-03     119.847E-03
             472            1067     114.878E-03     119.847E-03
             474            1068     124.031E-03     128.770E-03
             457            1068     124.031E-03     128.770E-03
             473            1068     124.031E-03     128.770E-03
             456            1068     124.031E-03     128.770E-03
             457            1069     136.225E-03     140.980E-03
             458            1069     136.225E-03     140.980E-03
             475            1069     136.225E-03     140.980E-03
             474            1069     136.225E-03     140.980E-03
             475            1070     155.933E-03     159.570E-03
             476            1070     155.933E-03     159.570E-03
             459            1070     155.933E-03     159.570E-03
             458            1070     155.933E-03     159.570E-03
             478            1071     32.6385E-03     33.8445E-03
             477            1071     32.6385E-03     33.8445E-03
             460            1071     32.6385E-03     33.8445E-03
             461            1071     32.6385E-03     33.8445E-03
             478            1072     37.9798E-03     40.0610E-03
             479            1072     37.9798E-03     40.0610E-03
             462            1072     37.9798E-03     40.0610E-03
             461            1072     37.9798E-03     40.0610E-03
             462            1073     45.1132E-03     47.8390E-03
             479            1073     45.1132E-03     47.8390E-03
             463            1073     45.1132E-03     47.8390E-03
             480            1073     45.1132E-03     47.8390E-03
             481            1074     53.0567E-03     56.1064E-03
             463            1074     53.0567E-03     56.1064E-03
             480            1074     53.0567E-03     56.1064E-03
             464            1074     53.0567E-03     56.1064E-03
             464            1075     61.3761E-03     64.5499E-03
             482            1075     61.3761E-03     64.5499E-03
             465            1075     61.3761E-03     64.5499E-03
             481            1075     61.3761E-03     64.5499E-03
             465            1076     69.8451E-03     73.0128E-03
             483            1076     69.8451E-03     73.0128E-03
             482            1076     69.8451E-03     73.0128E-03
             466            1076     69.8451E-03     73.0128E-03
             467            1077     78.3411E-03     81.5096E-03
             483            1077     78.3411E-03     81.5096E-03
             484            1077     78.3411E-03     81.5096E-03
             466            1077     78.3411E-03     81.5096E-03
             468            1078     86.8214E-03     89.9384E-03
             484            1078     86.8214E-03     89.9384E-03
             467            1078     86.8214E-03     89.9384E-03
             485            1078     86.8214E-03     89.9384E-03
             468            1079     95.2023E-03     98.3164E-03
             486            1079     95.2023E-03     98.3164E-03
             485            1079     95.2023E-03     98.3164E-03
             469            1079     95.2023E-03     98.3164E-03
             486            1080     103.525E-03     106.534E-03
             470            1080     103.525E-03     106.534E-03
             487            1080     103.525E-03     106.534E-03
             469            1080     103.525E-03     106.534E-03
             471            1081     111.708E-03     114.612E-03
             488            1081     111.708E-03     114.612E-03
             487            1081     111.708E-03     114.612E-03
             470            1081     111.708E-03     114.612E-03
             472            1082     119.912E-03     122.474E-03
             488            1082     119.912E-03     122.474E-03
             471            1082     119.912E-03     122.474E-03
             489            1082     119.912E-03     122.474E-03
             473            1083     127.955E-03     130.102E-03
             489            1083     127.955E-03     130.102E-03
             472            1083     127.955E-03     130.102E-03
             490            1083     127.955E-03     130.102E-03
             473            1084     136.360E-03     137.752E-03
             474            1084     136.360E-03     137.752E-03
             491            1084     136.360E-03     137.752E-03
             490            1084     136.360E-03     137.752E-03
             474            1085     144.793E-03     145.716E-03
             475            1085     144.793E-03     145.716E-03
             491            1085     144.793E-03     145.716E-03
             492            1085     144.793E-03     145.716E-03
             476            1086     156.153E-03     158.809E-03
             493            1086     156.153E-03     158.809E-03
             492            1086     156.153E-03     158.809E-03
             475            1086     156.153E-03     158.809E-03
             495            1087     32.5085E-03     35.8298E-03
             478            1087     32.5085E-03     35.8298E-03
             494            1087     32.5085E-03     35.8298E-03
             477            1087     32.5085E-03     35.8298E-03
             478            1088     41.6939E-03     42.7987E-03
             496            1088     41.6939E-03     42.7987E-03
             495            1088     41.6939E-03     42.7987E-03
             479            1088     41.6939E-03     42.7987E-03
             497            1089     50.5776E-03     51.5934E-03
             496            1089     50.5776E-03     51.5934E-03
             480            1089     50.5776E-03     51.5934E-03
             479            1089     50.5776E-03     51.5934E-03
             480            1090     59.9149E-03     60.9820E-03
             497            1090     59.9149E-03     60.9820E-03
             498            1090     59.9149E-03     60.9820E-03
             481            1090     59.9149E-03     60.9820E-03
             481            1091     69.3488E-03     70.3978E-03
             482            1091     69.3488E-03     70.3978E-03
             499            1091     69.3488E-03     70.3978E-03
             498            1091     69.3488E-03     70.3978E-03
             500            1092     78.9108E-03     79.9202E-03
             482            1092     78.9108E-03     79.9202E-03
             499            1092     78.9108E-03     79.9202E-03
             483            1092     78.9108E-03     79.9202E-03
             500            1093     88.4956E-03     89.4637E-03
             484            1093     88.4956E-03     89.4637E-03
             483            1093     88.4956E-03     89.4637E-03
             501            1093     88.4956E-03     89.4637E-03
             485            1094     98.0935E-03     99.0055E-03
             502            1094     98.0935E-03     99.0055E-03
             484            1094     98.0935E-03     99.0055E-03
             501            1094     98.0935E-03     99.0055E-03
             502            1095     107.649E-03     108.527E-03
             486            1095     107.649E-03     108.527E-03
             503            1095     107.649E-03     108.527E-03
             485            1095     107.649E-03     108.527E-03
             486            1096     117.184E-03     117.979E-03
             504            1096     117.184E-03     117.979E-03
             503            1096     117.184E-03     117.979E-03
             487            1096     117.184E-03     117.979E-03
             504            1097     126.625E-03     127.354E-03
             488            1097     126.625E-03     127.354E-03
             505            1097     126.625E-03     127.354E-03
             487            1097     126.625E-03     127.354E-03
             505            1098     135.986E-03     136.528E-03
             506            1098     135.986E-03     136.528E-03
             489            1098     135.986E-03     136.528E-03
             488            1098     135.986E-03     136.528E-03
             507            1099     145.104E-03     145.409E-03
             506            1099     145.104E-03     145.409E-03
             490            1099     145.104E-03     145.409E-03
             489            1099     145.104E-03     145.409E-03
             507            1100     153.411E-03     153.538E-03
             508            1100     153.411E-03     153.538E-03
             491            1100     153.411E-03     153.538E-03
             490            1100     153.411E-03     153.538E-03
             491            1101     160.500E-03     160.342E-03
             492            1101     160.500E-03     160.342E-03
             508            1101     160.500E-03     160.342E-03
             509            1101     160.500E-03     160.342E-03
             493            1102     165.165E-03     164.561E-03
             492            1102     165.165E-03     164.561E-03
             510            1102     165.165E-03     164.561E-03
             509            1102     165.165E-03     164.561E-03
             494            1103     27.9751E-03     33.7836E-03
             495            1103     27.9751E-03     33.7836E-03
             511            1103     27.9751E-03     33.7836E-03
             512            1103     27.9751E-03     33.7836E-03
             513            1104     38.6867E-03     42.3718E-03
             512            1104     38.6867E-03     42.3718E-03
             495            1104     38.6867E-03     42.3718E-03
             496            1104     38.6867E-03     42.3718E-03
             514            1105     48.8234E-03     51.2842E-03
             497            1105     48.8234E-03     51.2842E-03
             496            1105     48.8234E-03     51.2842E-03
             513            1105     48.8234E-03     51.2842E-03
             497            1106     58.5956E-03     60.7723E-03
             498            1106     58.5956E-03     60.7723E-03
             514            1106     58.5956E-03     60.7723E-03
             515            1106     58.5956E-03     60.7723E-03
             516            1107     68.2974E-03     70.4289E-03
             499            1107     68.2974E-03     70.4289E-03
             498            1107     68.2974E-03     70.4289E-03
             515            1107     68.2974E-03     70.4289E-03
             517            1108     78.0745E-03     80.2208E-03
             516            1108     78.0745E-03     80.2208E-03
             500            1108     78.0745E-03     80.2208E-03
             499            1108     78.0745E-03     80.2208E-03
             500            1109     87.8848E-03     90.0398E-03
             518            1109     87.8848E-03     90.0398E-03
             501            1109     87.8848E-03     90.0398E-03
             517            1109     87.8848E-03     90.0398E-03
             519            1110     97.7481E-03     99.9043E-03
             501            1110     97.7481E-03     99.9043E-03
             518            1110     97.7481E-03     99.9043E-03
             502            1110     97.7481E-03     99.9043E-03
             520            1111     107.668E-03     109.804E-03
             503            1111     107.668E-03     109.804E-03
             502            1111     107.668E-03     109.804E-03
             519            1111     107.668E-03     109.804E-03
             503            1112     117.632E-03     119.772E-03
             520            1112     117.632E-03     119.772E-03
             504            1112     117.632E-03     119.772E-03
             521            1112     117.632E-03     119.772E-03
             522            1113     127.701E-03     129.847E-03
             504            1113     127.701E-03     129.847E-03
             521            1113     127.701E-03     129.847E-03
             505            1113     127.701E-03     129.847E-03
             522            1114     137.795E-03     140.061E-03
             505            1114     137.795E-03     140.061E-03
             506            1114     137.795E-03     140.061E-03
             523            1114     137.795E-03     140.061E-03
             524            1115     148.063E-03     150.511E-03
             523            1115     148.063E-03     150.511E-03
             507            1115     148.063E-03     150.511E-03
             506            1115     148.063E-03     150.511E-03
             525            1116     158.090E-03     161.005E-03
             507            1116     158.090E-03     161.005E-03
             508            1116     158.090E-03     161.005E-03
             524            1116     158.090E-03     161.005E-03
             509            1117     166.889E-03     170.592E-03
             525            1117     166.889E-03     170.592E-03
             508            1117     166.889E-03     170.592E-03
             526            1117     166.889E-03     170.592E-03
             510            1118     174.662E-03     177.370E-03
             527            1118     174.662E-03     177.370E-03
             509            1118     174.662E-03     177.370E-03
             526            1118     174.662E-03     177.370E-03
             528            1119     26.6963E-03     32.0611E-03
             511            1119     26.6963E-03     32.0611E-03
             529            1119     26.6963E-03     32.0611E-03
             512            1119     26.6963E-03     32.0611E-03
             529            1120     37.3131E-03     42.5872E-03
             513            1120     37.3131E-03     42.5872E-03
             512            1120     37.3131E-03     42.5872E-03
             530            1120     37.3131E-03     42.5872E-03
             513            1121     47.6984E-03     51.6115E-03
             514            1121     47.6984E-03     51.6115E-03
             530            1121     47.6984E-03     51.6115E-03
             531            1121     47.6984E-03     51.6115E-03
             515            1122     57.5545E-03     60.9247E-03
             514            1122     57.5545E-03     60.9247E-03
             532            1122     57.5545E-03     60.9247E-03
             531            1122     57.5545E-03     60.9247E-03
             533            1123     67.4314E-03     70.7656E-03
             516            1123     67.4314E-03     70.7656E-03
             532            1123     67.4314E-03     70.7656E-03
             515            1123     67.4314E-03     70.7656E-03
             517            1124     77.2837E-03     80.6387E-03
             533            1124     77.2837E-03     80.6387E-03
             516            1124     77.2837E-03     80.6387E-03
             534            1124     77.2837E-03     80.6387E-03
             517            1125     87.2033E-03     90.5988E-03
             518            1125     87.2033E-03     90.5988E-03
             534            1125     87.2033E-03     90.5988E-03
             535            1125     87.2033E-03     90.5988E-03
             535            1126     97.1671E-03     100.582E-03
             536            1126     97.1671E-03     100.582E-03
             518            1126     97.1671E-03     100.582E-03
             519            1126     97.1671E-03     100.582E-03
             536            1127     107.192E-03     110.627E-03
             537            1127     107.192E-03     110.627E-03
             519            1127     107.192E-03     110.627E-03
             520            1127     107.192E-03     110.627E-03
             520            1128     117.297E-03     120.759E-03
             537            1128     117.297E-03     120.759E-03
             521            1128     117.297E-03     120.759E-03
             538            1128     117.297E-03     120.759E-03
             538            1129     127.476E-03     131.033E-03
             522            1129     127.476E-03     131.033E-03
             539            1129     127.476E-03     131.033E-03
             521            1129     127.476E-03     131.033E-03
             522            1130     137.836E-03     141.606E-03
             539            1130     137.836E-03     141.606E-03
             523            1130     137.836E-03     141.606E-03
             540            1130     137.836E-03     141.606E-03
             540            1131     148.291E-03     152.545E-03
             541            1131     148.291E-03     152.545E-03
             524            1131     148.291E-03     152.545E-03
             523            1131     148.291E-03     152.545E-03
             524            1132     159.660E-03     164.284E-03
             541            1132     159.660E-03     164.284E-03
             525            1132     159.660E-03     164.284E-03
             542            1132     159.660E-03     164.284E-03
             526            1133     171.240E-03     176.069E-03
             525            1133     171.240E-03     176.069E-03
             543            1133     171.240E-03     176.069E-03
             542            1133     171.240E-03     176.069E-03
             527            1134     181.384E-03     186.384E-03
             543            1134     181.384E-03     186.384E-03
             544            1134     181.384E-03     186.384E-03
             526            1134     181.384E-03     186.384E-03
             546            1135     27.4526E-03     34.3114E-03
             528            1135     27.4526E-03     34.3114E-03
             545            1135     27.4526E-03     34.3114E-03
             529            1135     27.4526E-03     34.3114E-03
             529            1136     37.9473E-03     43.2194E-03
             546            1136     37.9473E-03     43.2194E-03
             530            1136     37.9473E-03     43.2194E-03
             547            1136     37.9473E-03     43.2194E-03
             531            1137     47.2520E-03     52.0657E-03
             530            1137     47.2520E-03     52.0657E-03
             548            1137     47.2520E-03     52.0657E-03
             547            1137     47.2520E-03     52.0657E-03
             548            1138     56.9627E-03     61.5485E-03
             549            1138     56.9627E-03     61.5485E-03
             531            1138     56.9627E-03     61.5485E-03
             532            1138     56.9627E-03     61.5485E-03
             532            1139     66.7206E-03     71.2856E-03
             549            1139     66.7206E-03     71.2856E-03
             533            1139     66.7206E-03     71.2856E-03
             550            1139     66.7206E-03     71.2856E-03
             551            1140     76.5357E-03     81.1606E-03
             533            1140     76.5357E-03     81.1606E-03
             550            1140     76.5357E-03     81.1606E-03
             534            1140     76.5357E-03     81.1606E-03
             552            1141     86.3859E-03     91.0527E-03
             551            1141     86.3859E-03     91.0527E-03
             535            1141     86.3859E-03     91.0527E-03
             534            1141     86.3859E-03     91.0527E-03
             553            1142     96.2587E-03     100.968E-03
             552            1142     96.2587E-03     100.968E-03
             535            1142     96.2587E-03     100.968E-03
             536            1142     96.2587E-03     100.968E-03
             536            1143     106.153E-03     110.884E-03
             553            1143     106.153E-03     110.884E-03
             554            1143     106.153E-03     110.884E-03
             537            1143     106.153E-03     110.884E-03
             537            1144     116.067E-03     120.830E-03
             555            1144     116.067E-03     120.830E-03
             538            1144     116.067E-03     120.830E-03
             554            1144     116.067E-03     120.830E-03
             539            1145     126.007E-03     130.837E-03
             555            1145     126.007E-03     130.837E-03
             538            1145     126.007E-03     130.837E-03
             556            1145     126.007E-03     130.837E-03
             556            1146     136.030E-03     141.000E-03
             539            1146     136.030E-03     141.000E-03
             557            1146     136.030E-03     141.000E-03
             540            1146     136.030E-03     141.000E-03
             541            1147     146.332E-03     151.592E-03
             557            1147     146.332E-03     151.592E-03
             540            1147     146.332E-03     151.592E-03
             558            1147     146.332E-03     151.592E-03
             558            1148     157.269E-03     162.942E-03
             559            1148     157.269E-03     162.942E-03
             541            1148     157.269E-03     162.942E-03
             542            1148     157.269E-03     162.942E-03
             559            1149     171.379E-03     176.609E-03
             543            1149     171.379E-03     176.609E-03
             560            1149     171.379E-03     176.609E-03
             542            1149     171.379E-03     176.609E-03
             560            1150     186.904E-03     189.865E-03
             544            1150     186.904E-03     189.865E-03
             543            1150     186.904E-03     189.865E-03
             561            1150     186.904E-03     189.865E-03
             546            1151     31.7897E-03     37.1353E-03
             545            1151     31.7897E-03     37.1353E-03
             563            1151     31.7897E-03     37.1353E-03
             562            1151     31.7897E-03     37.1353E-03
             563            1152     39.3155E-03     44.3552E-03
             564            1152     39.3155E-03     44.3552E-03
             547            1152     39.3155E-03     44.3552E-03
             546            1152     39.3155E-03     44.3552E-03
             547            1153     47.5705E-03     53.0323E-03
             564            1153     47.5705E-03     53.0323E-03
             565            1153     47.5705E-03     53.0323E-03
             548            1153     47.5705E-03     53.0323E-03
             566            1154     56.8108E-03     62.5532E-03
             549            1154     56.8108E-03     62.5532E-03
             565            1154     56.8108E-03     62.5532E-03
             548            1154     56.8108E-03     62.5532E-03
             567            1155     66.2764E-03     72.1165E-03
             566            1155     66.2764E-03     72.1165E-03
             550            1155     66.2764E-03     72.1165E-03
             549            1155     66.2764E-03     72.1165E-03
             568            1156     75.9115E-03     81.8115E-03
             567            1156     75.9115E-03     81.8115E-03
             550            1156     75.9115E-03     81.8115E-03
             551            1156     75.9115E-03     81.8115E-03
             551            1157     85.5373E-03     91.4943E-03
             568            1157     85.5373E-03     91.4943E-03
             569            1157     85.5373E-03     91.4943E-03
             552            1157     85.5373E-03     91.4943E-03
             552            1158     95.1542E-03     101.145E-03
             553            1158     95.1542E-03     101.145E-03
             570            1158     95.1542E-03     101.145E-03
             569            1158     95.1542E-03     101.145E-03
             570            1159     104.704E-03     110.743E-03
             571            1159     104.704E-03     110.743E-03
             553            1159     104.704E-03     110.743E-03
             554            1159     104.704E-03     110.743E-03
             571            1160     114.178E-03     120.233E-03
             572            1160     114.178E-03     120.233E-03
             554            1160     114.178E-03     120.233E-03
             555            1160     114.178E-03     120.233E-03
             556            1161     123.597E-03     129.646E-03
             572            1161     123.597E-03     129.646E-03
             555            1161     123.597E-03     129.646E-03
             573            1161     123.597E-03     129.646E-03
             574            1162     132.966E-03     138.943E-03
             556            1162     132.966E-03     138.943E-03
             573            1162     132.966E-03     138.943E-03
             557            1162     132.966E-03     138.943E-03
             575            1163     142.636E-03     148.430E-03
             557            1163     142.636E-03     148.430E-03
             558            1163     142.636E-03     148.430E-03
             574            1163     142.636E-03     148.430E-03
             576            1164     152.828E-03     158.449E-03
             559            1164     152.828E-03     158.449E-03
             558            1164     152.828E-03     158.449E-03
             575            1164     152.828E-03     158.449E-03
             577            1165     165.753E-03     171.190E-03
             576            1165     165.753E-03     171.190E-03
             559            1165     165.753E-03     171.190E-03
             560            1165     165.753E-03     171.190E-03
             560            1166     185.714E-03     189.860E-03
             561            1166     185.714E-03     189.860E-03
             578            1166     185.714E-03     189.860E-03
             577            1166     185.714E-03     189.860E-03
             579            1167     31.9218E-03     35.2053E-03
             563            1167     31.9218E-03     35.2053E-03
             562            1167     31.9218E-03     35.2053E-03
             580            1167     31.9218E-03     35.2053E-03
             564            1168     39.5302E-03     43.8001E-03
             580            1168     39.5302E-03     43.8001E-03
             563            1168     39.5302E-03     43.8001E-03
             581            1168     39.5302E-03     43.8001E-03
             581            1169     48.5900E-03     53.3144E-03
             582            1169     48.5900E-03     53.3144E-03
             565            1169     48.5900E-03     53.3144E-03
             564            1169     48.5900E-03     53.3144E-03
             583            1170     58.1740E-03     63.1085E-03
             566            1170     58.1740E-03     63.1085E-03
             582            1170     58.1740E-03     63.1085E-03
             565            1170     58.1740E-03     63.1085E-03
             584            1171     67.9693E-03     73.0091E-03
             566            1171     67.9693E-03     73.0091E-03
             567            1171     67.9693E-03     73.0091E-03
             583            1171     67.9693E-03     73.0091E-03
             568            1172     77.8527E-03     82.9138E-03
             584            1172     77.8527E-03     82.9138E-03
             567            1172     77.8527E-03     82.9138E-03
             585            1172     77.8527E-03     82.9138E-03
             585            1173     87.7382E-03     92.8337E-03
             586            1173     87.7382E-03     92.8337E-03
             568            1173     87.7382E-03     92.8337E-03
             569            1173     87.7382E-03     92.8337E-03
             569            1174     97.6109E-03     102.714E-03
             586            1174     97.6109E-03     102.714E-03
             570            1174     97.6109E-03     102.714E-03
             587            1174     97.6109E-03     102.714E-03
             570            1175     107.409E-03     112.559E-03
             588            1175     107.409E-03     112.559E-03
             587            1175     107.409E-03     112.559E-03
             571            1175     107.409E-03     112.559E-03
             571            1176     117.177E-03     122.312E-03
             589            1176     117.177E-03     122.312E-03
             572            1176     117.177E-03     122.312E-03
             588            1176     117.177E-03     122.312E-03
             573            1177     126.836E-03     131.983E-03
             589            1177     126.836E-03     131.983E-03
             572            1177     126.836E-03     131.983E-03
             590            1177     126.836E-03     131.983E-03
             590            1178     136.539E-03     141.539E-03
             573            1178     136.539E-03     141.539E-03
             574            1178     136.539E-03     141.539E-03
             591            1178     136.539E-03     141.539E-03
             575            1179     146.216E-03     151.049E-03
             592            1179     146.216E-03     151.049E-03
             574            1179     146.216E-03     151.049E-03
             591            1179     146.216E-03     151.049E-03
             593            1180     156.445E-03     160.864E-03
             575            1180     156.445E-03     160.864E-03
             592            1180     156.445E-03     160.864E-03
             576            1180     156.445E-03     160.864E-03
             576            1181     167.232E-03     171.515E-03
             594            1181     167.232E-03     171.515E-03
             577            1181     167.232E-03     171.515E-03
             593            1181     167.232E-03     171.515E-03
             577            1182     182.367E-03     188.225E-03
             578            1182     182.367E-03     188.225E-03
             595            1182     182.367E-03     188.225E-03
             594            1182     182.367E-03     188.225E-03
             596            1183     358.970E-06     386.158E-06
             614            1183     358.970E-06     386.158E-06
             597            1183     358.970E-06     386.158E-06
             613            1183     358.970E-06     386.158E-06
             598            1184     360.704E-06     381.185E-06
             614            1184     360.704E-06     381.185E-06
             615            1184     360.704E-06     381.185E-06
             597            1184     360.704E-06     381.185E-06
             615            1185     361.625E-06     384.614E-06
             616            1185     361.625E-06     384.614E-06
             599            1185     361.625E-06     384.614E-06
             598            1185     361.625E-06     384.614E-06
             600            1186     360.765E-06     390.370E-06
             599            1186     360.765E-06     390.370E-06
             617            1186     360.765E-06     390.370E-06
             616            1186     360.765E-06     390.370E-06
             617            1187     361.113E-06     395.321E-06
             601            1187     361.113E-06     395.321E-06
             600            1187     361.113E-06     395.321E-06
             618            1187     361.113E-06     395.321E-06
             619            1188     363.338E-06     401.347E-06
             601            1188     363.338E-06     401.347E-06
             602            1188     363.338E-06     401.347E-06
             618            1188     363.338E-06     401.347E-06
             603            1189     366.343E-06     407.936E-06
             602            1189     366.343E-06     407.936E-06
             620            1189     366.343E-06     407.936E-06
             619            1189     366.343E-06     407.936E-06
             603            1190     370.873E-06     415.125E-06
             620            1190     370.873E-06     415.125E-06
             604            1190     370.873E-06     415.125E-06
             621            1190     370.873E-06     415.125E-06
             621            1191     376.437E-06     423.182E-06
             622            1191     376.437E-06     423.182E-06
             604            1191     376.437E-06     423.182E-06
             605            1191     376.437E-06     423.182E-06
             622            1192     383.542E-06     431.753E-06
             623            1192     383.542E-06     431.753E-06
             605            1192     383.542E-06     431.753E-06
             606            1192     383.542E-06     431.753E-06
             607            1193     392.058E-06     441.394E-06
             606            1193     392.058E-06     441.394E-06
             623            1193     392.058E-06     441.394E-06
             624            1193     392.058E-06     441.394E-06
             625            1194     400.844E-06     450.770E-06
             608            1194     400.844E-06     450.770E-06
             624            1194     400.844E-06     450.770E-06
             607            1194     400.844E-06     450.770E-06
             625            1195     411.578E-06     461.626E-06
             609            1195     411.578E-06     461.626E-06
             608            1195     411.578E-06     461.626E-06
             626            1195     411.578E-06     461.626E-06
             626            1196     412.570E-06     466.719E-06
             609            1196     412.570E-06     466.719E-06
             627            1196     412.570E-06     466.719E-06
             610            1196     412.570E-06     466.719E-06
             610            1197     432.024E-06     485.299E-06
             627            1197     432.024E-06     485.299E-06
             611            1197     432.024E-06     485.299E-06
             628            1197     432.024E-06     485.299E-06
             611            1198     524.090E-06     571.751E-06
             612            1198     524.090E-06     571.751E-06
             628            1198     524.090E-06     571.751E-06
             629            1198     524.090E-06     571.751E-06
             631            1199     396.446E-06     363.915E-06
             614            1199     396.446E-06     363.915E-06
             613            1199     396.446E-06     363.915E-06
             630            1199     396.446E-06     363.915E-06
             631            1200     377.690E-06     385.277E-06
             632            1200     377.690E-06     385.277E-06
             615            1200     377.690E-06     385.277E-06
             614            1200     377.690E-06     385.277E-06
             616            1201     370.381E-06     389.419E-06
             633            1201     370.381E-06     389.419E-06
             615            1201     370.381E-06     389.419E-06
             632            1201     370.381E-06     389.419E-06
             633            1202     371.959E-06     389.818E-06
             634            1202     371.959E-06     389.818E-06
             617            1202     371.959E-06     389.818E-06
             616            1202     371.959E-06     389.818E-06
             635            1203     374.446E-06     393.712E-06
             618            1203     374.446E-06     393.712E-06
             634            1203     374.446E-06     393.712E-06
             617            1203     374.446E-06     393.712E-06
             619            1204     377.615E-06     398.490E-06
             636            1204     377.615E-06     398.490E-06
             635            1204     377.615E-06     398.490E-06
             618            1204     377.615E-06     398.490E-06
             636            1205     382.097E-06     404.087E-06
             619            1205     382.097E-06     404.087E-06
             620            1205     382.097E-06     404.087E-06
             637            1205     382.097E-06     404.087E-06
             620            1206     387.353E-06     410.394E-06
             638            1206     387.353E-06     410.394E-06
             637            1206     387.353E-06     410.394E-06
             621            1206     387.353E-06     410.394E-06
             621            1207     393.639E-06     417.380E-06
             639            1207     393.639E-06     417.380E-06
             638            1207     393.639E-06     417.380E-06
             622            1207     393.639E-06     417.380E-06
             623            1208     401.068E-06     425.433E-06
             622            1208     401.068E-06     425.433E-06
             639            1208     401.068E-06     425.433E-06
             640            1208     401.068E-06     425.433E-06
             641            1209     409.971E-06     434.713E-06
             623            1209     409.971E-06     434.713E-06
             624            1209     409.971E-06     434.713E-06
             640            1209     409.971E-06     434.713E-06
             641            1210     421.543E-06     446.385E-06
             642            1210     421.543E-06     446.385E-06
             624            1210     421.543E-06     446.385E-06
             625            1210     421.543E-06     446.385E-06
             643            1211     435.117E-06     460.184E-06
             625            1211     435.117E-06     460.184E-06
             626            1211     435.117E-06     460.184E-06
             642            1211     435.117E-06     460.184E-06
             644            1212     449.278E-06     473.868E-06
             627            1212     449.278E-06     473.868E-06
             626            1212     449.278E-06     473.868E-06
             643            1212     449.278E-06     473.868E-06
             645            1213     441.718E-06     471.894E-06
             644            1213     441.718E-06     471.894E-06
             627            1213     441.718E-06     471.894E-06
             628            1213     441.718E-06     471.894E-06
             645            1214     415.875E-06     427.268E-06
             629            1214     415.875E-06     427.268E-06
             628            1214     415.875E-06     427.268E-06
             646            1214     415.875E-06     427.268E-06
             647            1215     406.752E-06     375.203E-06
             630            1215     406.752E-06     375.203E-06
             648            1215     406.752E-06     375.203E-06
             631            1215     406.752E-06     375.203E-06
             648            1216     389.938E-06     392.043E-06
             631            1216     389.938E-06     392.043E-06
             632            1216     389.938E-06     392.043E-06
             649            1216     389.938E-06     392.043E-06
             649            1217     385.527E-06     393.140E-06
             632            1217     385.527E-06     393.140E-06
             633            1217     385.527E-06     393.140E-06
             650            1217     385.527E-06     393.140E-06
             633            1218     388.844E-06     392.057E-06
             634            1218     388.844E-06     392.057E-06
             651            1218     388.844E-06     392.057E-06
             650            1218     388.844E-06     392.057E-06
             651            1219     392.560E-06     394.388E-06
             634            1219     392.560E-06     394.388E-06
             635            1219     392.560E-06     394.388E-06
             652            1219     392.560E-06     394.388E-06
             635            1220     396.863E-06     397.674E-06
             653            1220     396.863E-06     397.674E-06
             636            1220     396.863E-06     397.674E-06
             652            1220     396.863E-06     397.674E-06
             653            1221     402.026E-06     401.891E-06
             636            1221     402.026E-06     401.891E-06
             637            1221     402.026E-06     401.891E-06
             654            1221     402.026E-06     401.891E-06
             637            1222     407.688E-06     406.736E-06
             655            1222     407.688E-06     406.736E-06
             654            1222     407.688E-06     406.736E-06
             638            1222     407.688E-06     406.736E-06
             638            1223     414.033E-06     412.348E-06
             656            1223     414.033E-06     412.348E-06
             639            1223     414.033E-06     412.348E-06
             655            1223     414.033E-06     412.348E-06
             640            1224     421.050E-06     418.784E-06
             639            1224     421.050E-06     418.784E-06
             656            1224     421.050E-06     418.784E-06
             657            1224     421.050E-06     418.784E-06
             641            1225     429.220E-06     426.473E-06
             658            1225     429.220E-06     426.473E-06
             640            1225     429.220E-06     426.473E-06
             657            1225     429.220E-06     426.473E-06
             641            1226     439.814E-06     436.830E-06
             659            1226     439.814E-06     436.830E-06
             658            1226     439.814E-06     436.830E-06
             642            1226     439.814E-06     436.830E-06
             642            1227     451.097E-06     447.472E-06
             643            1227     451.097E-06     447.472E-06
             660            1227     451.097E-06     447.472E-06
             659            1227     451.097E-06     447.472E-06
             660            1228     465.084E-06     458.641E-06
             661            1228     465.084E-06     458.641E-06
             643            1228     465.084E-06     458.641E-06
             644            1228     465.084E-06     458.641E-06
             645            1229     419.756E-06     425.283E-06
             644            1229     419.756E-06     425.283E-06
             661            1229     419.756E-06     425.283E-06
             662            1229     419.756E-06     425.283E-06
             646            1230     269.970E-06     292.327E-06
             645            1230     269.970E-06     292.327E-06
             662            1230     269.970E-06     292.327E-06
             663            1230     269.970E-06     292.327E-06
             665            1231     390.494E-06     414.335E-06
             647            1231     390.494E-06     414.335E-06
             648            1231     390.494E-06     414.335E-06
             664            1231     390.494E-06     414.335E-06
             666            1232     399.268E-06     399.660E-06
             649            1232     399.268E-06     399.660E-06
             648            1232     399.268E-06     399.660E-06
             665            1232     399.268E-06     399.660E-06
             666            1233     406.614E-06     396.129E-06
             650            1233     406.614E-06     396.129E-06
             649            1233     406.614E-06     396.129E-06
             667            1233     406.614E-06     396.129E-06
             650            1234     410.754E-06     396.963E-06
             667            1234     410.754E-06     396.963E-06
             668            1234     410.754E-06     396.963E-06
             651            1234     410.754E-06     396.963E-06
             651            1235     415.120E-06     397.302E-06
             652            1235     415.120E-06     397.302E-06
             668            1235     415.120E-06     397.302E-06
             669            1235     415.120E-06     397.302E-06
             670            1236     420.514E-06     399.059E-06
             669            1236     420.514E-06     399.059E-06
             653            1236     420.514E-06     399.059E-06
             652            1236     420.514E-06     399.059E-06
             653            1237     425.825E-06     401.471E-06
             671            1237     425.825E-06     401.471E-06
             654            1237     425.825E-06     401.471E-06
             670            1237     425.825E-06     401.471E-06
             671            1238     431.714E-06     404.630E-06
             655            1238     431.714E-06     404.630E-06
             672            1238     431.714E-06     404.630E-06
             654            1238     431.714E-06     404.630E-06
             655            1239     437.609E-06     408.484E-06
             672            1239     437.609E-06     408.484E-06
             673            1239     437.609E-06     408.484E-06
             656            1239     437.609E-06     408.484E-06
             657            1240     443.769E-06     412.800E-06
             673            1240     443.769E-06     412.800E-06
             674            1240     443.769E-06     412.800E-06
             656            1240     443.769E-06     412.800E-06
             657            1241     450.045E-06     417.490E-06
             674            1241     450.045E-06     417.490E-06
             675            1241     450.045E-06     417.490E-06
             658            1241     450.045E-06     417.490E-06
             658            1242     455.185E-06     421.588E-06
             676            1242     455.185E-06     421.588E-06
             659            1242     455.185E-06     421.588E-06
             675            1242     455.185E-06     421.588E-06
             676            1243     458.904E-06     423.405E-06
             677            1243     458.904E-06     423.405E-06
             659            1243     458.904E-06     423.405E-06
             660            1243     458.904E-06     423.405E-06
             678            1244     444.530E-06     408.884E-06
             661            1244     444.530E-06     408.884E-06
             660            1244     444.530E-06     408.884E-06
             677            1244     444.530E-06     408.884E-06
             661            1245     390.825E-06     354.191E-06
             662            1245     390.825E-06     354.191E-06
             678            1245     390.825E-06     354.191E-06
             679            1245     390.825E-06     354.191E-06
             662            1246     220.086E-06     237.798E-06
             663            1246     220.086E-06     237.798E-06
             680            1246     220.086E-06     237.798E-06
             679            1246     220.086E-06     237.798E-06
             686            1247     724.167E-06     704.623E-06
             681            1247     724.167E-06     704.623E-06
             687            1247     724.167E-06     704.623E-06
             682            1247     724.167E-06     704.623E-06
             682            1248     653.630E-06     635.319E-06
             687            1248     653.630E-06     635.319E-06
             688            1248     653.630E-06     635.319E-06
             683            1248     653.630E-06     635.319E-06
             684            1249     574.692E-06     574.885E-06
             688            1249     574.692E-06     574.885E-06
             689            1249     574.692E-06     574.885E-06
             683            1249     574.692E-06     574.885E-06
             689            1250     652.232E-06     667.485E-06
             684            1250     652.232E-06     667.485E-06
             690            1250     652.232E-06     667.485E-06
             685            1250     652.232E-06     667.485E-06
             691            1251     715.305E-06     703.398E-06
             692            1251     715.305E-06     703.398E-06
             687            1251     715.305E-06     703.398E-06
             686            1251     715.305E-06     703.398E-06
             692            1252     625.743E-06     598.809E-06
             688            1252     625.743E-06     598.809E-06
             693            1252     625.743E-06     598.809E-06
             687            1252     625.743E-06     598.809E-06
             694            1253     508.007E-06     458.646E-06
             693            1253     508.007E-06     458.646E-06
             688            1253     508.007E-06     458.646E-06
             689            1253     508.007E-06     458.646E-06
             694            1254     484.208E-06     435.715E-06
             689            1254     484.208E-06     435.715E-06
             695            1254     484.208E-06     435.715E-06
             690            1254     484.208E-06     435.715E-06
             696            1255     696.955E-06     692.925E-06
             697            1255     696.955E-06     692.925E-06
             692            1255     696.955E-06     692.925E-06
             691            1255     696.955E-06     692.925E-06
             692            1256     565.941E-06     581.063E-06
             693            1256     565.941E-06     581.063E-06
             698            1256     565.941E-06     581.063E-06
             697            1256     565.941E-06     581.063E-06
             698            1257     367.746E-06     400.288E-06
             699            1257     367.746E-06     400.288E-06
             694            1257     367.746E-06     400.288E-06
             693            1257     367.746E-06     400.288E-06
             700            1258     264.395E-06     303.007E-06
             694            1258     264.395E-06     303.007E-06
             695            1258     264.395E-06     303.007E-06
             699            1258     264.395E-06     303.007E-06
             702            1259     698.943E-06     683.353E-06
             701            1259     698.943E-06     683.353E-06
             697            1259     698.943E-06     683.353E-06
             696            1259     698.943E-06     683.353E-06
             702            1260     556.372E-06     550.842E-06
             698            1260     556.372E-06     550.842E-06
             697            1260     556.372E-06     550.842E-06
             703            1260     556.372E-06     550.842E-06
             703            1261     342.608E-06     351.455E-06
             699            1261     342.608E-06     351.455E-06
             698            1261     342.608E-06     351.455E-06
             704            1261     342.608E-06     351.455E-06
             699            1262     231.179E-06     266.453E-06
             700            1262     231.179E-06     266.453E-06
             704            1262     231.179E-06     266.453E-06
             705            1262     231.179E-06     266.453E-06
             712            1263     46.2446E-03     45.7803E-03
             707            1263     46.2446E-03     45.7803E-03
             711            1263     46.2446E-03     45.7803E-03
             706            1263     46.2446E-03     45.7803E-03
             708            1264     37.6841E-03     37.7154E-03
             712            1264     37.6841E-03     37.7154E-03
             713            1264     37.6841E-03     37.7154E-03
             707            1264     37.6841E-03     37.7154E-03
             713            1265     27.0087E-03     27.3867E-03
             708            1265     27.0087E-03     27.3867E-03
             714            1265     27.0087E-03     27.3867E-03
             709            1265     27.0087E-03     27.3867E-03
             710            1266     15.6128E-03     19.2047E-03
             714            1266     15.6128E-03     19.2047E-03
             709            1266     15.6128E-03     19.2047E-03
             715            1266     15.6128E-03     19.2047E-03
             712            1267     46.3345E-03     45.9279E-03
             717            1267     46.3345E-03     45.9279E-03
             716            1267     46.3345E-03     45.9279E-03
             711            1267     46.3345E-03     45.9279E-03
             712            1268     37.4191E-03     37.7562E-03
             718            1268     37.4191E-03     37.7562E-03
             713            1268     37.4191E-03     37.7562E-03
             717            1268     37.4191E-03     37.7562E-03
             713            1269     26.8672E-03     27.5752E-03
             718            1269     26.8672E-03     27.5752E-03
             714            1269     26.8672E-03     27.5752E-03
             719            1269     26.8672E-03     27.5752E-03
             715            1270     15.6814E-03     18.2515E-03
             714            1270     15.6814E-03     18.2515E-03
             719            1270     15.6814E-03     18.2515E-03
             720            1270     15.6814E-03     18.2515E-03
             721            1271     47.2744E-03     46.9529E-03
             717            1271     47.2744E-03     46.9529E-03
             716            1271     47.2744E-03     46.9529E-03
             722            1271     47.2744E-03     46.9529E-03
             718            1272     38.4945E-03     39.1407E-03
             723            1272     38.4945E-03     39.1407E-03
             722            1272     38.4945E-03     39.1407E-03
             717            1272     38.4945E-03     39.1407E-03
             723            1273     27.7869E-03     29.1279E-03
             718            1273     27.7869E-03     29.1279E-03
             719            1273     27.7869E-03     29.1279E-03
             724            1273     27.7869E-03     29.1279E-03
             725            1274     15.0769E-03     17.3546E-03
             720            1274     15.0769E-03     17.3546E-03
             724            1274     15.0769E-03     17.3546E-03
             719            1274     15.0769E-03     17.3546E-03
             726            1275     48.1155E-03     47.6941E-03
             721            1275     48.1155E-03     47.6941E-03
             722            1275     48.1155E-03     47.6941E-03
             727            1275     48.1155E-03     47.6941E-03
             728            1276     41.0314E-03     41.1528E-03
             727            1276     41.0314E-03     41.1528E-03
             722            1276     41.0314E-03     41.1528E-03
             723            1276     41.0314E-03     41.1528E-03
             729            1277     31.8636E-03     31.6273E-03
             724            1277     31.8636E-03     31.6273E-03
             723            1277     31.8636E-03     31.6273E-03
             728            1277     31.8636E-03     31.6273E-03
             730            1278     23.8292E-03     23.0301E-03
             724            1278     23.8292E-03     23.0301E-03
             725            1278     23.8292E-03     23.0301E-03
             729            1278     23.8292E-03     23.0301E-03
             727            1279     48.5425E-03     49.2024E-03
             726            1279     48.5425E-03     49.2024E-03
             731            1279     48.5425E-03     49.2024E-03
             732            1279     48.5425E-03     49.2024E-03
             727            1280     43.2128E-03     44.9252E-03
             728            1280     43.2128E-03     44.9252E-03
             733            1280     43.2128E-03     44.9252E-03
             732            1280     43.2128E-03     44.9252E-03
             734            1281     36.2300E-03     39.1444E-03
             729            1281     36.2300E-03     39.1444E-03
             728            1281     36.2300E-03     39.1444E-03
             733            1281     36.2300E-03     39.1444E-03
             734            1282     32.8844E-03     35.6569E-03
             729            1282     32.8844E-03     35.6569E-03
             730            1282     32.8844E-03     35.6569E-03
             735            1282     32.8844E-03     35.6569E-03
             736            1283     51.1944E-03     50.5851E-03
             737            1283     51.1944E-03     50.5851E-03
             732            1283     51.1944E-03     50.5851E-03
             731            1283     51.1944E-03     50.5851E-03
             738            1284     49.8357E-03     47.5499E-03
             733            1284     49.8357E-03     47.5499E-03
             737            1284     49.8357E-03     47.5499E-03
             732            1284     49.8357E-03     47.5499E-03
             733            1285     48.0266E-03     45.5966E-03
             739            1285     48.0266E-03     45.5966E-03
             738            1285     48.0266E-03     45.5966E-03
             734            1285     48.0266E-03     45.5966E-03
             739            1286     48.8309E-03     47.1186E-03
             740            1286     48.8309E-03     47.1186E-03
             734            1286     48.8309E-03     47.1186E-03
             735            1286     48.8309E-03     47.1186E-03
             737            1287     52.0811E-03     50.8754E-03
             736            1287     52.0811E-03     50.8754E-03
             741            1287     52.0811E-03     50.8754E-03
             742            1287     52.0811E-03     50.8754E-03
             742            1288     52.6267E-03     50.9207E-03
             743            1288     52.6267E-03     50.9207E-03
             738            1288     52.6267E-03     50.9207E-03
             737            1288     52.6267E-03     50.9207E-03
             739            1289     53.5701E-03     52.9084E-03
             743            1289     53.5701E-03     52.9084E-03
             738            1289     53.5701E-03     52.9084E-03
             744            1289     53.5701E-03     52.9084E-03
             745            1290     60.0059E-03     59.7851E-03
             744            1290     60.0059E-03     59.7851E-03
             740            1290     60.0059E-03     59.7851E-03
             739            1290     60.0059E-03     59.7851E-03
             746            1291     49.5756E-03     50.0154E-03
             742            1291     49.5756E-03     50.0154E-03
             741            1291     49.5756E-03     50.0154E-03
             747            1291     49.5756E-03     50.0154E-03
             747            1292     48.0589E-03     51.9240E-03
             742            1292     48.0589E-03     51.9240E-03
             743            1292     48.0589E-03     51.9240E-03
             748            1292     48.0589E-03     51.9240E-03
             748            1293     48.2987E-03     57.0003E-03
             743            1293     48.2987E-03     57.0003E-03
             744            1293     48.2987E-03     57.0003E-03
             749            1293     48.2987E-03     57.0003E-03
             750            1294     51.9202E-03     60.2753E-03
             749            1294     51.9202E-03     60.2753E-03
             744            1294     51.9202E-03     60.2753E-03
             745            1294     51.9202E-03     60.2753E-03
             746            1295     49.8946E-03     49.4204E-03
             752            1295     49.8946E-03     49.4204E-03
             747            1295     49.8946E-03     49.4204E-03
             751            1295     49.8946E-03     49.4204E-03
             753            1296     49.9586E-03     50.4935E-03
             748            1296     49.9586E-03     50.4935E-03
             752            1296     49.9586E-03     50.4935E-03
             747            1296     49.9586E-03     50.4935E-03
             749            1297     52.9182E-03     53.5402E-03
             748            1297     52.9182E-03     53.5402E-03
             754            1297     52.9182E-03     53.5402E-03
             753            1297     52.9182E-03     53.5402E-03
             750            1298     52.3409E-03     50.7443E-03
             755            1298     52.3409E-03     50.7443E-03
             754            1298     52.3409E-03     50.7443E-03
             749            1298     52.3409E-03     50.7443E-03
             751            1299     52.0304E-03     51.8479E-03
             756            1299     52.0304E-03     51.8479E-03
             757            1299     52.0304E-03     51.8479E-03
             752            1299     52.0304E-03     51.8479E-03
             758            1300     54.7833E-03     55.6867E-03
             757            1300     54.7833E-03     55.6867E-03
             752            1300     54.7833E-03     55.6867E-03
             753            1300     54.7833E-03     55.6867E-03
             754            1301     57.5471E-03     59.4472E-03
             759            1301     57.5471E-03     59.4472E-03
             753            1301     57.5471E-03     59.4472E-03
             758            1301     57.5471E-03     59.4472E-03
             759            1302     58.7649E-03     60.2491E-03
             760            1302     58.7649E-03     60.2491E-03
             754            1302     58.7649E-03     60.2491E-03
             755            1302     58.7649E-03     60.2491E-03
             757            1303     54.6737E-03     54.0320E-03
             756            1303     54.6737E-03     54.0320E-03
             761            1303     54.6737E-03     54.0320E-03
             762            1303     54.6737E-03     54.0320E-03
             763            1304     59.7145E-03     59.0312E-03
             757            1304     59.7145E-03     59.0312E-03
             762            1304     59.7145E-03     59.0312E-03
             758            1304     59.7145E-03     59.0312E-03
             758            1305     64.0927E-03     63.9295E-03
             763            1305     64.0927E-03     63.9295E-03
             759            1305     64.0927E-03     63.9295E-03
             764            1305     64.0927E-03     63.9295E-03
             760            1306     69.1106E-03     68.6905E-03
             764            1306     69.1106E-03     68.6905E-03
             759            1306     69.1106E-03     68.6905E-03
             765            1306     69.1106E-03     68.6905E-03
             767            1307     55.8075E-03     57.1847E-03
             761            1307     55.8075E-03     57.1847E-03
             766            1307     55.8075E-03     57.1847E-03
             762            1307     55.8075E-03     57.1847E-03
             768            1308     63.1055E-03     65.7100E-03
             767            1308     63.1055E-03     65.7100E-03
             763            1308     63.1055E-03     65.7100E-03
             762            1308     63.1055E-03     65.7100E-03
             768            1309     69.2990E-03     75.1619E-03
             769            1309     69.2990E-03     75.1619E-03
             763            1309     69.2990E-03     75.1619E-03
             764            1309     69.2990E-03     75.1619E-03
             765            1310     77.1411E-03     82.9732E-03
             764            1310     77.1411E-03     82.9732E-03
             769            1310     77.1411E-03     82.9732E-03
             770            1310     77.1411E-03     82.9732E-03
             767            1311     60.4478E-03     59.2962E-03
             766            1311     60.4478E-03     59.2962E-03
             772            1311     60.4478E-03     59.2962E-03
             771            1311     60.4478E-03     59.2962E-03
             768            1312     74.0453E-03     69.7792E-03
             772            1312     74.0453E-03     69.7792E-03
             773            1312     74.0453E-03     69.7792E-03
             767            1312     74.0453E-03     69.7792E-03
             774            1313     85.9200E-03     82.8699E-03
             769            1313     85.9200E-03     82.8699E-03
             768            1313     85.9200E-03     82.8699E-03
             773            1313     85.9200E-03     82.8699E-03
             775            1314     96.0153E-03     93.9799E-03
             774            1314     96.0153E-03     93.9799E-03
             769            1314     96.0153E-03     93.9799E-03
             770            1314     96.0153E-03     93.9799E-03
             776            1315     61.2408E-03     59.1782E-03
             771            1315     61.2408E-03     59.1782E-03
             772            1315     61.2408E-03     59.1782E-03
             777            1315     61.2408E-03     59.1782E-03
             773            1316     77.2465E-03     73.8785E-03
             772            1316     77.2465E-03     73.8785E-03
             777            1316     77.2465E-03     73.8785E-03
             778            1316     77.2465E-03     73.8785E-03
             774            1317     92.7436E-03     91.1049E-03
             773            1317     92.7436E-03     91.1049E-03
             778            1317     92.7436E-03     91.1049E-03
             779            1317     92.7436E-03     91.1049E-03
             774            1318     108.127E-03     106.997E-03
             775            1318     108.127E-03     106.997E-03
             779            1318     108.127E-03     106.997E-03
             780            1318     108.127E-03     106.997E-03
             777            1319     56.1995E-03     58.5109E-03
             776            1319     56.1995E-03     58.5109E-03
             782            1319     56.1995E-03     58.5109E-03
             781            1319     56.1995E-03     58.5109E-03
             778            1320     67.5443E-03     76.4863E-03
             777            1320     67.5443E-03     76.4863E-03
             783            1320     67.5443E-03     76.4863E-03
             782            1320     67.5443E-03     76.4863E-03
             783            1321     80.9450E-03     97.8113E-03
             784            1321     80.9450E-03     97.8113E-03
             779            1321     80.9450E-03     97.8113E-03
             778            1321     80.9450E-03     97.8113E-03
             780            1322     94.8750E-03     110.039E-03
             784            1322     94.8750E-03     110.039E-03
             779            1322     94.8750E-03     110.039E-03
             785            1322     94.8750E-03     110.039E-03
             786            1323     58.6591E-03     58.0286E-03
             781            1323     58.6591E-03     58.0286E-03
             787            1323     58.6591E-03     58.0286E-03
             782            1323     58.6591E-03     58.0286E-03
             787            1324     73.8576E-03     73.2765E-03
             788            1324     73.8576E-03     73.2765E-03
             782            1324     73.8576E-03     73.2765E-03
             783            1324     73.8576E-03     73.2765E-03
             789            1325     90.5010E-03     91.0624E-03
             783            1325     90.5010E-03     91.0624E-03
             784            1325     90.5010E-03     91.0624E-03
             788            1325     90.5010E-03     91.0624E-03
             789            1326     98.3095E-03     97.5849E-03
             784            1326     98.3095E-03     97.5849E-03
             790            1326     98.3095E-03     97.5849E-03
             785            1326     98.3095E-03     97.5849E-03
             786            1327     62.7034E-03     60.9320E-03
             787            1327     62.7034E-03     60.9320E-03
             792            1327     62.7034E-03     60.9320E-03
             791            1327     62.7034E-03     60.9320E-03
             792            1328     81.0251E-03     77.9458E-03
             793            1328     81.0251E-03     77.9458E-03
             787            1328     81.0251E-03     77.9458E-03
             788            1328     81.0251E-03     77.9458E-03
             793            1329     97.1317E-03     93.7627E-03
             788            1329     97.1317E-03     93.7627E-03
             794            1329     97.1317E-03     93.7627E-03
             789            1329     97.1317E-03     93.7627E-03
             789            1330     106.629E-03     102.827E-03
             790            1330     106.629E-03     102.827E-03
             794            1330     106.629E-03     102.827E-03
             795            1330     106.629E-03     102.827E-03
             797            1331     63.1716E-03     66.0842E-03
             791            1331     63.1716E-03     66.0842E-03
             792            1331     63.1716E-03     66.0842E-03
             796            1331     63.1716E-03     66.0842E-03
             792            1332     80.8236E-03     86.9237E-03
             797            1332     80.8236E-03     86.9237E-03
             798            1332     80.8236E-03     86.9237E-03
             793            1332     80.8236E-03     86.9237E-03
             793            1333     94.3505E-03     105.858E-03
             794            1333     94.3505E-03     105.858E-03
             799            1333     94.3505E-03     105.858E-03
             798            1333     94.3505E-03     105.858E-03
             799            1334     107.493E-03     118.428E-03
             794            1334     107.493E-03     118.428E-03
             795            1334     107.493E-03     118.428E-03
             800            1334     107.493E-03     118.428E-03
             797            1335     69.1136E-03     67.7011E-03
             801            1335     69.1136E-03     67.7011E-03
             802            1335     69.1136E-03     67.7011E-03
             796            1335     69.1136E-03     67.7011E-03
             797            1336     95.0375E-03     88.7636E-03
             802            1336     95.0375E-03     88.7636E-03
             803            1336     95.0375E-03     88.7636E-03
             798            1336     95.0375E-03     88.7636E-03
             804            1337     116.106E-03     110.128E-03
             803            1337     116.106E-03     110.128E-03
             798            1337     116.106E-03     110.128E-03
             799            1337     116.106E-03     110.128E-03
             804            1338     131.204E-03     126.596E-03
             799            1338     131.204E-03     126.596E-03
             805            1338     131.204E-03     126.596E-03
             800            1338     131.204E-03     126.596E-03
             806            1339     69.3362E-03     66.9364E-03
             802            1339     69.3362E-03     66.9364E-03
             801            1339     69.3362E-03     66.9364E-03
             807            1339     69.3362E-03     66.9364E-03
             807            1340     97.2918E-03     93.0963E-03
             803            1340     97.2918E-03     93.0963E-03
             808            1340     97.2918E-03     93.0963E-03
             802            1340     97.2918E-03     93.0963E-03
             804            1341     121.978E-03     120.268E-03
             809            1341     121.978E-03     120.268E-03
             808            1341     121.978E-03     120.268E-03
             803            1341     121.978E-03     120.268E-03
             804            1342     142.925E-03     141.954E-03
             809            1342     142.925E-03     141.954E-03
             805            1342     142.925E-03     141.954E-03
             810            1342     142.925E-03     141.954E-03
             807            1343     62.8211E-03     66.6057E-03
             811            1343     62.8211E-03     66.6057E-03
             812            1343     62.8211E-03     66.6057E-03
             806            1343     62.8211E-03     66.6057E-03
             812            1344     84.9591E-03     97.5946E-03
             807            1344     84.9591E-03     97.5946E-03
             813            1344     84.9591E-03     97.5946E-03
             808            1344     84.9591E-03     97.5946E-03
             808            1345     107.806E-03     131.147E-03
             809            1345     107.806E-03     131.147E-03
             813            1345     107.806E-03     131.147E-03
             814            1345     107.806E-03     131.147E-03
             814            1346     128.605E-03     149.760E-03
             809            1346     128.605E-03     149.760E-03
             815            1346     128.605E-03     149.760E-03
             810            1346     128.605E-03     149.760E-03
             812            1347     67.0627E-03     65.5836E-03
             816            1347     67.0627E-03     65.5836E-03
             817            1347     67.0627E-03     65.5836E-03
             811            1347     67.0627E-03     65.5836E-03
             818            1348     94.5712E-03     93.2818E-03
             812            1348     94.5712E-03     93.2818E-03
             813            1348     94.5712E-03     93.2818E-03
             817            1348     94.5712E-03     93.2818E-03
             818            1349     122.272E-03     121.804E-03
             814            1349     122.272E-03     121.804E-03
             819            1349     122.272E-03     121.804E-03
             813            1349     122.272E-03     121.804E-03
             820            1350     137.235E-03     134.036E-03
             815            1350     137.235E-03     134.036E-03
             814            1350     137.235E-03     134.036E-03
             819            1350     137.235E-03     134.036E-03
             821            1351     71.9564E-03     70.5280E-03
             816            1351     71.9564E-03     70.5280E-03
             822            1351     71.9564E-03     70.5280E-03
             817            1351     71.9564E-03     70.5280E-03
             822            1352     102.004E-03     100.468E-03
             818            1352     102.004E-03     100.468E-03
             823            1352     102.004E-03     100.468E-03
             817            1352     102.004E-03     100.468E-03
             823            1353     126.293E-03     127.016E-03
             818            1353     126.293E-03     127.016E-03
             824            1353     126.293E-03     127.016E-03
             819            1353     126.293E-03     127.016E-03
             820            1354     140.486E-03     141.531E-03
             825            1354     140.486E-03     141.531E-03
             819            1354     140.486E-03     141.531E-03
             824            1354     140.486E-03     141.531E-03
             822            1355     74.9415E-03     74.3156E-03
             821            1355     74.9415E-03     74.3156E-03
             826            1355     74.9415E-03     74.3156E-03
             827            1355     74.9415E-03     74.3156E-03
             823            1356     104.183E-03     104.260E-03
             828            1356     104.183E-03     104.260E-03
             822            1356     104.183E-03     104.260E-03
             827            1356     104.183E-03     104.260E-03
             829            1357     127.012E-03     130.253E-03
             828            1357     127.012E-03     130.253E-03
             823            1357     127.012E-03     130.253E-03
             824            1357     127.012E-03     130.253E-03
             825            1358     145.448E-03     148.330E-03
             829            1358     145.448E-03     148.330E-03
             830            1358     145.448E-03     148.330E-03
             824            1358     145.448E-03     148.330E-03
             827            1359     76.2295E-03     78.5470E-03
             831            1359     76.2295E-03     78.5470E-03
             832            1359     76.2295E-03     78.5470E-03
             826            1359     76.2295E-03     78.5470E-03
             832            1360     107.975E-03     111.464E-03
             833            1360     107.975E-03     111.464E-03
             828            1360     107.975E-03     111.464E-03
             827            1360     107.975E-03     111.464E-03
             828            1361     132.109E-03     141.138E-03
             834            1361     132.109E-03     141.138E-03
             829            1361     132.109E-03     141.138E-03
             833            1361     132.109E-03     141.138E-03
             830            1362     152.919E-03     161.615E-03
             829            1362     152.919E-03     161.615E-03
             834            1362     152.919E-03     161.615E-03
             835            1362     152.919E-03     161.615E-03
             831            1363     82.5774E-03     80.7567E-03
             837            1363     82.5774E-03     80.7567E-03
             836            1363     82.5774E-03     80.7567E-03
             832            1363     82.5774E-03     80.7567E-03
             837            1364     122.903E-03     116.099E-03
             833            1364     122.903E-03     116.099E-03
             832            1364     122.903E-03     116.099E-03
             838            1364     122.903E-03     116.099E-03
             838            1365     153.841E-03     149.862E-03
             839            1365     153.841E-03     149.862E-03
             834            1365     153.841E-03     149.862E-03
             833            1365     153.841E-03     149.862E-03
             834            1366     175.197E-03     172.958E-03
             835            1366     175.197E-03     172.958E-03
             839            1366     175.197E-03     172.958E-03
             840            1366     175.197E-03     172.958E-03
             836            1367     81.8843E-03     78.6304E-03
             842            1367     81.8843E-03     78.6304E-03
             837            1367     81.8843E-03     78.6304E-03
             841            1367     81.8843E-03     78.6304E-03
             837            1368     124.643E-03     119.233E-03
             842            1368     124.643E-03     119.233E-03
             838            1368     124.643E-03     119.233E-03
             843            1368     124.643E-03     119.233E-03
             844            1369     161.296E-03     158.590E-03
             838            1369     161.296E-03     158.590E-03
             843            1369     161.296E-03     158.590E-03
             839            1369     161.296E-03     158.590E-03
             845            1370     189.222E-03     186.518E-03
             839            1370     189.222E-03     186.518E-03
             840            1370     189.222E-03     186.518E-03
             844            1370     189.222E-03     186.518E-03
             847            1371     72.7751E-03     78.6665E-03
             846            1371     72.7751E-03     78.6665E-03
             841            1371     72.7751E-03     78.6665E-03
             842            1371     72.7751E-03     78.6665E-03
             842            1372     107.354E-03     124.720E-03
             848            1372     107.354E-03     124.720E-03
             847            1372     107.354E-03     124.720E-03
             843            1372     107.354E-03     124.720E-03
             848            1373     140.356E-03     171.156E-03
             844            1373     140.356E-03     171.156E-03
             849            1373     140.356E-03     171.156E-03
             843            1373     140.356E-03     171.156E-03
             849            1374     169.032E-03     196.446E-03
             845            1374     169.032E-03     196.446E-03
             850            1374     169.032E-03     196.446E-03
             844            1374     169.032E-03     196.446E-03
             852            1375     79.6538E-03     78.1200E-03
             846            1375     79.6538E-03     78.1200E-03
             847            1375     79.6538E-03     78.1200E-03
             851            1375     79.6538E-03     78.1200E-03
             848            1376     120.975E-03     118.621E-03
             852            1376     120.975E-03     118.621E-03
             847            1376     120.975E-03     118.621E-03
             853            1376     120.975E-03     118.621E-03
             854            1377     158.446E-03     158.373E-03
             848            1377     158.446E-03     158.373E-03
             849            1377     158.446E-03     158.373E-03
             853            1377     158.446E-03     158.373E-03
             850            1378     179.201E-03     177.809E-03
             849            1378     179.201E-03     177.809E-03
             854            1378     179.201E-03     177.809E-03
             855            1378     179.201E-03     177.809E-03
             851            1379     86.0675E-03     82.6502E-03
             852            1379     86.0675E-03     82.6502E-03
             857            1379     86.0675E-03     82.6502E-03
             856            1379     86.0675E-03     82.6502E-03
             853            1380     130.305E-03     123.514E-03
             857            1380     130.305E-03     123.514E-03
             858            1380     130.305E-03     123.514E-03
             852            1380     130.305E-03     123.514E-03
             853            1381     165.086E-03     158.278E-03
             854            1381     165.086E-03     158.278E-03
             859            1381     165.086E-03     158.278E-03
             858            1381     165.086E-03     158.278E-03
             859            1382     185.684E-03     179.042E-03
             855            1382     185.684E-03     179.042E-03
             854            1382     185.684E-03     179.042E-03
             860            1382     185.684E-03     179.042E-03
             856            1383     84.5820E-03     90.2512E-03
             862            1383     84.5820E-03     90.2512E-03
             857            1383     84.5820E-03     90.2512E-03
             861            1383     84.5820E-03     90.2512E-03
             858            1384     124.769E-03     135.306E-03
             857            1384     124.769E-03     135.306E-03
             863            1384     124.769E-03     135.306E-03
             862            1384     124.769E-03     135.306E-03
             858            1385     153.291E-03     172.747E-03
             864            1385     153.291E-03     172.747E-03
             859            1385     153.291E-03     172.747E-03
             863            1385     153.291E-03     172.747E-03
             859            1386     177.950E-03     196.308E-03
             864            1386     177.950E-03     196.308E-03
             860            1386     177.950E-03     196.308E-03
             865            1386     177.950E-03     196.308E-03
             861            1387     92.8411E-03     90.3884E-03
             862            1387     92.8411E-03     90.3884E-03
             867            1387     92.8411E-03     90.3884E-03
             866            1387     92.8411E-03     90.3884E-03
             867            1388     144.130E-03     134.354E-03
             862            1388     144.130E-03     134.354E-03
             868            1388     144.130E-03     134.354E-03
             863            1388     144.130E-03     134.354E-03
             869            1389     182.878E-03     173.657E-03
             868            1389     182.878E-03     173.657E-03
             863            1389     182.878E-03     173.657E-03
             864            1389     182.878E-03     173.657E-03
             865            1390     208.327E-03     200.940E-03
             864            1390     208.327E-03     200.940E-03
             870            1390     208.327E-03     200.940E-03
             869            1390     208.327E-03     200.940E-03
             867            1391     91.3306E-03     87.9503E-03
             866            1391     91.3306E-03     87.9503E-03
             871            1391     91.3306E-03     87.9503E-03
             872            1391     91.3306E-03     87.9503E-03
             872            1392     144.330E-03     138.391E-03
             873            1392     144.330E-03     138.391E-03
             868            1392     144.330E-03     138.391E-03
             867            1392     144.330E-03     138.391E-03
             869            1393     188.081E-03     185.813E-03
             868            1393     188.081E-03     185.813E-03
             873            1393     188.081E-03     185.813E-03
             874            1393     188.081E-03     185.813E-03
             869            1394     220.259E-03     218.680E-03
             870            1394     220.259E-03     218.680E-03
             875            1394     220.259E-03     218.680E-03
             874            1394     220.259E-03     218.680E-03
             872            1395     79.7464E-03     84.2445E-03
             876            1395     79.7464E-03     84.2445E-03
             871            1395     79.7464E-03     84.2445E-03
             877            1395     79.7464E-03     84.2445E-03
             872            1396     127.803E-03     140.187E-03
             878            1396     127.803E-03     140.187E-03
             877            1396     127.803E-03     140.187E-03
             873            1396     127.803E-03     140.187E-03
             873            1397     167.697E-03     189.360E-03
             878            1397     167.697E-03     189.360E-03
             874            1397     167.697E-03     189.360E-03
             879            1397     167.697E-03     189.360E-03
             880            1398     199.911E-03     220.778E-03
             875            1398     199.911E-03     220.778E-03
             874            1398     199.911E-03     220.778E-03
             879            1398     199.911E-03     220.778E-03
            1048            1491     35.5103E-03     51.1340E-03
            1049            1491     35.5103E-03     51.1340E-03
            1031            1491     35.5103E-03     51.1340E-03
            1032            1491     35.5103E-03     51.1340E-03
            1050            1492     32.7295E-03     48.9618E-03
            1033            1492     32.7295E-03     48.9618E-03
            1032            1492     32.7295E-03     48.9618E-03
            1049            1492     32.7295E-03     48.9618E-03
            1050            1493     41.5006E-03     57.3398E-03
            1034            1493     41.5006E-03     57.3398E-03
            1051            1493     41.5006E-03     57.3398E-03
            1033            1493     41.5006E-03     57.3398E-03
            1034            1494     53.9016E-03     68.8345E-03
            1051            1494     53.9016E-03     68.8345E-03
            1035            1494     53.9016E-03     68.8345E-03
            1052            1494     53.9016E-03     68.8345E-03
            1052            1495     66.5652E-03     80.8763E-03
            1036            1495     66.5652E-03     80.8763E-03
            1053            1495     66.5652E-03     80.8763E-03
            1035            1495     66.5652E-03     80.8763E-03
            1036            1496     79.6168E-03     93.1259E-03
            1037            1496     79.6168E-03     93.1259E-03
            1053            1496     79.6168E-03     93.1259E-03
            1054            1496     79.6168E-03     93.1259E-03
            1054            1497     92.8369E-03     105.370E-03
            1055            1497     92.8369E-03     105.370E-03
            1038            1497     92.8369E-03     105.370E-03
            1037            1497     92.8369E-03     105.370E-03
            1056            1498     106.084E-03     117.601E-03
            1055            1498     106.084E-03     117.601E-03
            1039            1498     106.084E-03     117.601E-03
            1038            1498     106.084E-03     117.601E-03
            1039            1499     119.379E-03     129.800E-03
            1040            1499     119.379E-03     129.800E-03
            1057            1499     119.379E-03     129.800E-03
            1056            1499     119.379E-03     129.800E-03
            1041            1500     132.606E-03     141.946E-03
            1057            1500     132.606E-03     141.946E-03
            1058            1500     132.606E-03     141.946E-03
            1040            1500     132.606E-03     141.946E-03
            1042            1501     145.852E-03     154.005E-03
            1041            1501     145.852E-03     154.005E-03
            1059            1501     145.852E-03     154.005E-03
            1058            1501     145.852E-03     154.005E-03
            1042            1502     158.910E-03     165.963E-03
            1059            1502     158.910E-03     165.963E-03
            1060            1502     158.910E-03     165.963E-03
            1043            1502     158.910E-03     165.963E-03
            1061            1503     172.005E-03     177.697E-03
            1043            1503     172.005E-03     177.697E-03
            1044            1503     172.005E-03     177.697E-03
            1060            1503     172.005E-03     177.697E-03
            1045            1504     184.547E-03     188.948E-03
            1061            1504     184.547E-03     188.948E-03
            1062            1504     184.547E-03     188.948E-03
            1044            1504     184.547E-03     188.948E-03
            1045            1505     195.389E-03     199.072E-03
            1046            1505     195.389E-03     199.072E-03
            1062            1505     195.389E-03     199.072E-03
            1063            1505     195.389E-03     199.072E-03
            1064            1506     204.127E-03     205.567E-03
            1046            1506     204.127E-03     205.567E-03
            1047            1506     204.127E-03     205.567E-03
            1063            1506     204.127E-03     205.567E-03
            1049            1507     31.0460E-03     34.0576E-03
            1066            1507     31.0460E-03     34.0576E-03
            1065            1507     31.0460E-03     34.0576E-03
            1048            1507     31.0460E-03     34.0576E-03
            1050            1508     31.4658E-03     40.0839E-03
            1066            1508     31.4658E-03     40.0839E-03
            1067            1508     31.4658E-03     40.0839E-03
            1049            1508     31.4658E-03     40.0839E-03
            1068            1509     43.0581E-03     50.3251E-03
            1050            1509     43.0581E-03     50.3251E-03
            1051            1509     43.0581E-03     50.3251E-03
            1067            1509     43.0581E-03     50.3251E-03
            1051            1510     55.7448E-03     62.7574E-03
            1052            1510     55.7448E-03     62.7574E-03
            1068            1510     55.7448E-03     62.7574E-03
            1069            1510     55.7448E-03     62.7574E-03
            1069            1511     68.4534E-03     75.4821E-03
            1052            1511     68.4534E-03     75.4821E-03
            1053            1511     68.4534E-03     75.4821E-03
            1070            1511     68.4534E-03     75.4821E-03
            1071            1512     81.4907E-03     88.3481E-03
            1053            1512     81.4907E-03     88.3481E-03
            1054            1512     81.4907E-03     88.3481E-03
            1070            1512     81.4907E-03     88.3481E-03
            1055            1513     94.6500E-03     101.276E-03
            1071            1513     94.6500E-03     101.276E-03
            1054            1513     94.6500E-03     101.276E-03
            1072            1513     94.6500E-03     101.276E-03
            1056            1514     107.895E-03     114.198E-03
            1055            1514     107.895E-03     114.198E-03
            1073            1514     107.895E-03     114.198E-03
            1072            1514     107.895E-03     114.198E-03
            1057            1515     121.196E-03     127.167E-03
            1056            1515     121.196E-03     127.167E-03
            1074            1515     121.196E-03     127.167E-03
            1073            1515     121.196E-03     127.167E-03
            1075            1516     134.573E-03     140.171E-03
            1074            1516     134.573E-03     140.171E-03
            1058            1516     134.573E-03     140.171E-03
            1057            1516     134.573E-03     140.171E-03
            1059            1517     148.009E-03     153.274E-03
            1058            1517     148.009E-03     153.274E-03
            1075            1517     148.009E-03     153.274E-03
            1076            1517     148.009E-03     153.274E-03
            1076            1518     161.619E-03     166.556E-03
            1077            1518     161.619E-03     166.556E-03
            1060            1518     161.619E-03     166.556E-03
            1059            1518     161.619E-03     166.556E-03
            1060            1519     175.262E-03     180.121E-03
            1078            1519     175.262E-03     180.121E-03
            1061            1519     175.262E-03     180.121E-03
            1077            1519     175.262E-03     180.121E-03
            1079            1520     189.494E-03     194.400E-03
            1062            1520     189.494E-03     194.400E-03
            1078            1520     189.494E-03     194.400E-03
            1061            1520     189.494E-03     194.400E-03
            1062            1521     203.768E-03     208.770E-03
            1063            1521     203.768E-03     208.770E-03
            1079            1521     203.768E-03     208.770E-03
            1080            1521     203.768E-03     208.770E-03
            1080            1522     215.030E-03     220.049E-03
            1064            1522     215.030E-03     220.049E-03
            1081            1522     215.030E-03     220.049E-03
            1063            1522     215.030E-03     220.049E-03
            1065            1523     29.5407E-03     27.3314E-03
            1082            1523     29.5407E-03     27.3314E-03
            1066            1523     29.5407E-03     27.3314E-03
            1083            1523     29.5407E-03     27.3314E-03
            1083            1524     29.6830E-03     29.5372E-03
            1066            1524     29.6830E-03     29.5372E-03
            1084            1524     29.6830E-03     29.5372E-03
            1067            1524     29.6830E-03     29.5372E-03
            1085            1525     46.0139E-03     44.3573E-03
            1067            1525     46.0139E-03     44.3573E-03
            1068            1525     46.0139E-03     44.3573E-03
            1084            1525     46.0139E-03     44.3573E-03
            1086            1526     58.3716E-03     57.5953E-03
            1068            1526     58.3716E-03     57.5953E-03
            1069            1526     58.3716E-03     57.5953E-03
            1085            1526     58.3716E-03     57.5953E-03
            1070            1527     71.1361E-03     70.9201E-03
            1087            1527     71.1361E-03     70.9201E-03
            1086            1527     71.1361E-03     70.9201E-03
            1069            1527     71.1361E-03     70.9201E-03
            1088            1528     83.9130E-03     84.2045E-03
            1087            1528     83.9130E-03     84.2045E-03
            1070            1528     83.9130E-03     84.2045E-03
            1071            1528     83.9130E-03     84.2045E-03
            1071            1529     96.8032E-03     97.5564E-03
            1089            1529     96.8032E-03     97.5564E-03
            1088            1529     96.8032E-03     97.5564E-03
            1072            1529     96.8032E-03     97.5564E-03
            1090            1530     109.788E-03     110.979E-03
            1072            1530     109.788E-03     110.979E-03
            1089            1530     109.788E-03     110.979E-03
            1073            1530     109.788E-03     110.979E-03
            1074            1531     122.820E-03     124.418E-03
            1090            1531     122.820E-03     124.418E-03
            1073            1531     122.820E-03     124.418E-03
            1091            1531     122.820E-03     124.418E-03
            1091            1532     135.922E-03     137.922E-03
            1074            1532     135.922E-03     137.922E-03
            1092            1532     135.922E-03     137.922E-03
            1075            1532     135.922E-03     137.922E-03
            1093            1533     149.066E-03     151.492E-03
            1092            1533     149.066E-03     151.492E-03
            1075            1533     149.066E-03     151.492E-03
            1076            1533     149.066E-03     151.492E-03
            1076            1534     162.348E-03     165.201E-03
            1093            1534     162.348E-03     165.201E-03
            1094            1534     162.348E-03     165.201E-03
            1077            1534     162.348E-03     165.201E-03
            1078            1535     175.719E-03     179.298E-03
            1094            1535     175.719E-03     179.298E-03
            1095            1535     175.719E-03     179.298E-03
            1077            1535     175.719E-03     179.298E-03
            1078            1536     189.564E-03     194.046E-03
            1079            1536     189.564E-03     194.046E-03
            1096            1536     189.564E-03     194.046E-03
            1095            1536     189.564E-03     194.046E-03
            1096            1537     205.947E-03     210.772E-03
            1079            1537     205.947E-03     210.772E-03
            1080            1537     205.947E-03     210.772E-03
            1097            1537     205.947E-03     210.772E-03
            1097            1538     222.388E-03     226.116E-03
            1080            1538     222.388E-03     226.116E-03
            1098            1538     222.388E-03     226.116E-03
            1081            1538     222.388E-03     226.116E-03
            1099            1539     30.3791E-03     35.8661E-03
            1100            1539     30.3791E-03     35.8661E-03
            1082            1539     30.3791E-03     35.8661E-03
            1083            1539     30.3791E-03     35.8661E-03
            1101            1540     32.3882E-03     24.5581E-03
            1084            1540     32.3882E-03     24.5581E-03
            1100            1540     32.3882E-03     24.5581E-03
            1083            1540     32.3882E-03     24.5581E-03
            1101            1541     48.8133E-03     39.1054E-03
            1084            1541     48.8133E-03     39.1054E-03
            1085            1541     48.8133E-03     39.1054E-03
            1102            1541     48.8133E-03     39.1054E-03
            1086            1542     61.8698E-03     53.2031E-03
            1085            1542     61.8698E-03     53.2031E-03
            1102            1542     61.8698E-03     53.2031E-03
            1103            1542     61.8698E-03     53.2031E-03
            1104            1543     74.4057E-03     66.8768E-03
            1087            1543     74.4057E-03     66.8768E-03
            1086            1543     74.4057E-03     66.8768E-03
            1103            1543     74.4057E-03     66.8768E-03
            1087            1544     86.8418E-03     80.4874E-03
            1105            1544     86.8418E-03     80.4874E-03
            1104            1544     86.8418E-03     80.4874E-03
            1088            1544     86.8418E-03     80.4874E-03
            1089            1545     99.3091E-03     94.1389E-03
            1088            1545     99.3091E-03     94.1389E-03
            1105            1545     99.3091E-03     94.1389E-03
            1106            1545     99.3091E-03     94.1389E-03
            1090            1546     111.790E-03     107.812E-03
            1107            1546     111.790E-03     107.812E-03
            1089            1546     111.790E-03     107.812E-03
            1106            1546     111.790E-03     107.812E-03
            1090            1547     124.260E-03     121.484E-03
            1108            1547     124.260E-03     121.484E-03
            1091            1547     124.260E-03     121.484E-03
            1107            1547     124.260E-03     121.484E-03
            1109            1548     136.660E-03     135.084E-03
            1108            1548     136.660E-03     135.084E-03
            1091            1548     136.660E-03     135.084E-03
            1092            1548     136.660E-03     135.084E-03
            1093            1549     149.037E-03     148.621E-03
            1092            1549     149.037E-03     148.621E-03
            1109            1549     149.037E-03     148.621E-03
            1110            1549     149.037E-03     148.621E-03
            1093            1550     161.237E-03     162.020E-03
            1110            1550     161.237E-03     162.020E-03
            1111            1550     161.237E-03     162.020E-03
            1094            1550     161.237E-03     162.020E-03
            1094            1551     173.622E-03     175.424E-03
            1112            1551     173.622E-03     175.424E-03
            1095            1551     173.622E-03     175.424E-03
            1111            1551     173.622E-03     175.424E-03
            1095            1552     186.098E-03     188.952E-03
            1113            1552     186.098E-03     188.952E-03
            1096            1552     186.098E-03     188.952E-03
            1112            1552     186.098E-03     188.952E-03
            1114            1553     200.575E-03     204.689E-03
            1097            1553     200.575E-03     204.689E-03
            1096            1553     200.575E-03     204.689E-03
            1113            1553     200.575E-03     204.689E-03
            1098            1554     221.938E-03     225.159E-03
            1097            1554     221.938E-03     225.159E-03
            1114            1554     221.938E-03     225.159E-03
            1115            1554     221.938E-03     225.159E-03
            1116            1555     13.1749E-03     15.5453E-03
            1117            1555     13.1749E-03     15.5453E-03
            1133            1555     13.1749E-03     15.5453E-03
            1134            1555     13.1749E-03     15.5453E-03
            1134            1556     16.5467E-03     16.2094E-03
            1135            1556     16.5467E-03     16.2094E-03
            1117            1556     16.5467E-03     16.2094E-03
            1118            1556     16.5467E-03     16.2094E-03
            1119            1557     14.9701E-03     15.1396E-03
            1118            1557     14.9701E-03     15.1396E-03
            1135            1557     14.9701E-03     15.1396E-03
            1136            1557     14.9701E-03     15.1396E-03
            1120            1558     15.2276E-03     15.2251E-03
            1136            1558     15.2276E-03     15.2251E-03
            1137            1558     15.2276E-03     15.2251E-03
            1119            1558     15.2276E-03     15.2251E-03
            1138            1559     15.0011E-03     15.0451E-03
            1120            1559     15.0011E-03     15.0451E-03
            1137            1559     15.0011E-03     15.0451E-03
            1121            1559     15.0011E-03     15.0451E-03
            1121            1560     14.9268E-03     14.9509E-03
            1138            1560     14.9268E-03     14.9509E-03
            1139            1560     14.9268E-03     14.9509E-03
            1122            1560     14.9268E-03     14.9509E-03
            1140            1561     14.8213E-03     14.8463E-03
            1123            1561     14.8213E-03     14.8463E-03
            1122            1561     14.8213E-03     14.8463E-03
            1139            1561     14.8213E-03     14.8463E-03
            1124            1562     14.7384E-03     14.7571E-03
            1123            1562     14.7384E-03     14.7571E-03
            1141            1562     14.7384E-03     14.7571E-03
            1140            1562     14.7384E-03     14.7571E-03
            1124            1563     14.6617E-03     14.6766E-03
            1125            1563     14.6617E-03     14.6766E-03
            1141            1563     14.6617E-03     14.6766E-03
            1142            1563     14.6617E-03     14.6766E-03
            1125            1564     14.5963E-03     14.6064E-03
            1126            1564     14.5963E-03     14.6064E-03
            1143            1564     14.5963E-03     14.6064E-03
            1142            1564     14.5963E-03     14.6064E-03
            1144            1565     14.5422E-03     14.5480E-03
            1126            1565     14.5422E-03     14.5480E-03
            1127            1565     14.5422E-03     14.5480E-03
            1143            1565     14.5422E-03     14.5480E-03
            1145            1566     14.4941E-03     14.4934E-03
            1127            1566     14.4941E-03     14.4934E-03
            1128            1566     14.4941E-03     14.4934E-03
            1144            1566     14.4941E-03     14.4934E-03
            1128            1567     14.4728E-03     14.4746E-03
            1146            1567     14.4728E-03     14.4746E-03
            1145            1567     14.4728E-03     14.4746E-03
            1129            1567     14.4728E-03     14.4746E-03
            1129            1568     14.4047E-03     14.3724E-03
            1146            1568     14.4047E-03     14.3724E-03
            1147            1568     14.4047E-03     14.3724E-03
            1130            1568     14.4047E-03     14.3724E-03
            1147            1569     14.5611E-03     14.6293E-03
            1131            1569     14.5611E-03     14.6293E-03
            1130            1569     14.5611E-03     14.6293E-03
            1148            1569     14.5611E-03     14.6293E-03
            1148            1570     14.0412E-03     13.6521E-03
            1149            1570     14.0412E-03     13.6521E-03
            1132            1570     14.0412E-03     13.6521E-03
            1131            1570     14.0412E-03     13.6521E-03
            1134            1571     15.5219E-03     16.3526E-03
            1133            1571     15.5219E-03     16.3526E-03
            1151            1571     15.5219E-03     16.3526E-03
            1150            1571     15.5219E-03     16.3526E-03
            1151            1572     20.1347E-03     19.3085E-03
            1134            1572     20.1347E-03     19.3085E-03
            1152            1572     20.1347E-03     19.3085E-03
            1135            1572     20.1347E-03     19.3085E-03
            1136            1573     20.9700E-03     20.7129E-03
            1153            1573     20.9700E-03     20.7129E-03
            1135            1573     20.9700E-03     20.7129E-03
            1152            1573     20.9700E-03     20.7129E-03
            1137            1574     21.6096E-03     21.3037E-03
            1136            1574     21.6096E-03     21.3037E-03
            1154            1574     21.6096E-03     21.3037E-03
            1153            1574     21.6096E-03     21.3037E-03
            1154            1575     21.3595E-03     21.1401E-03
            1155            1575     21.3595E-03     21.1401E-03
            1137            1575     21.3595E-03     21.1401E-03
            1138            1575     21.3595E-03     21.1401E-03
            1138            1576     20.9272E-03     20.6543E-03
            1155            1576     20.9272E-03     20.6543E-03
            1139            1576     20.9272E-03     20.6543E-03
            1156            1576     20.9272E-03     20.6543E-03
            1156            1577     20.2861E-03     20.0175E-03
            1140            1577     20.2861E-03     20.0175E-03
            1157            1577     20.2861E-03     20.0175E-03
            1139            1577     20.2861E-03     20.0175E-03
            1141            1578     19.6502E-03     19.3533E-03
            1140            1578     19.6502E-03     19.3533E-03
            1158            1578     19.6502E-03     19.3533E-03
            1157            1578     19.6502E-03     19.3533E-03
            1142            1579     18.9835E-03     18.6757E-03
            1159            1579     18.9835E-03     18.6757E-03
            1158            1579     18.9835E-03     18.6757E-03
            1141            1579     18.9835E-03     18.6757E-03
            1160            1580     18.3549E-03     18.0434E-03
            1143            1580     18.3549E-03     18.0434E-03
            1142            1580     18.3549E-03     18.0434E-03
            1159            1580     18.3549E-03     18.0434E-03
            1143            1581     17.7535E-03     17.4563E-03
            1160            1581     17.7535E-03     17.4563E-03
            1144            1581     17.7535E-03     17.4563E-03
            1161            1581     17.7535E-03     17.4563E-03
            1144            1582     17.1879E-03     16.9093E-03
            1145            1582     17.1879E-03     16.9093E-03
            1161            1582     17.1879E-03     16.9093E-03
            1162            1582     17.1879E-03     16.9093E-03
            1145            1583     16.6669E-03     16.4418E-03
            1146            1583     16.6669E-03     16.4418E-03
            1163            1583     16.6669E-03     16.4418E-03
            1162            1583     16.6669E-03     16.4418E-03
            1147            1584     16.1156E-03     15.9312E-03
            1164            1584     16.1156E-03     15.9312E-03
            1163            1584     16.1156E-03     15.9312E-03
            1146            1584     16.1156E-03     15.9312E-03
            1164            1585     15.6862E-03     15.7051E-03
            1147            1585     15.6862E-03     15.7051E-03
            1165            1585     15.6862E-03     15.7051E-03
            1148            1585     15.6862E-03     15.7051E-03
            1149            1586     14.6227E-03     14.9393E-03
            1166            1586     14.6227E-03     14.9393E-03
            1165            1586     14.6227E-03     14.9393E-03
            1148            1586     14.6227E-03     14.9393E-03
            1168            1587     19.6555E-03     18.2710E-03
            1167            1587     19.6555E-03     18.2710E-03
            1151            1587     19.6555E-03     18.2710E-03
            1150            1587     19.6555E-03     18.2710E-03
            1169            1588     26.7965E-03     24.0074E-03
            1168            1588     26.7965E-03     24.0074E-03
            1151            1588     26.7965E-03     24.0074E-03
            1152            1588     26.7965E-03     24.0074E-03
            1153            1589     29.6986E-03     27.1041E-03
            1170            1589     29.6986E-03     27.1041E-03
            1169            1589     29.6986E-03     27.1041E-03
            1152            1589     29.6986E-03     27.1041E-03
            1154            1590     30.0159E-03     27.6119E-03
            1153            1590     30.0159E-03     27.6119E-03
            1170            1590     30.0159E-03     27.6119E-03
            1171            1590     30.0159E-03     27.6119E-03
            1154            1591     29.2037E-03     26.9217E-03
            1171            1591     29.2037E-03     26.9217E-03
            1172            1591     29.2037E-03     26.9217E-03
            1155            1591     29.2037E-03     26.9217E-03
            1156            1592     27.8698E-03     25.7741E-03
            1172            1592     27.8698E-03     25.7741E-03
            1173            1592     27.8698E-03     25.7741E-03
            1155            1592     27.8698E-03     25.7741E-03
            1157            1593     26.4435E-03     24.4632E-03
            1173            1593     26.4435E-03     24.4632E-03
            1174            1593     26.4435E-03     24.4632E-03
            1156            1593     26.4435E-03     24.4632E-03
            1158            1594     24.9675E-03     23.1420E-03
            1157            1594     24.9675E-03     23.1420E-03
            1175            1594     24.9675E-03     23.1420E-03
            1174            1594     24.9675E-03     23.1420E-03
            1158            1595     23.5466E-03     21.8691E-03
            1176            1595     23.5466E-03     21.8691E-03
            1175            1595     23.5466E-03     21.8691E-03
            1159            1595     23.5466E-03     21.8691E-03
            1160            1596     22.1813E-03     20.6795E-03
            1176            1596     22.1813E-03     20.6795E-03
            1177            1596     22.1813E-03     20.6795E-03
            1159            1596     22.1813E-03     20.6795E-03
            1177            1597     20.9127E-03     19.6048E-03
            1161            1597     20.9127E-03     19.6048E-03
            1160            1597     20.9127E-03     19.6048E-03
            1178            1597     20.9127E-03     19.6048E-03
            1162            1598     19.7302E-03     18.6551E-03
            1178            1598     19.7302E-03     18.6551E-03
            1179            1598     19.7302E-03     18.6551E-03
            1161            1598     19.7302E-03     18.6551E-03
            1180            1599     18.6457E-03     17.8228E-03
            1179            1599     18.6457E-03     17.8228E-03
            1162            1599     18.6457E-03     17.8228E-03
            1163            1599     18.6457E-03     17.8228E-03
            1163            1600     17.5661E-03     17.0763E-03
            1164            1600     17.5661E-03     17.0763E-03
            1181            1600     17.5661E-03     17.0763E-03
            1180            1600     17.5661E-03     17.0763E-03
            1181            1601     16.4026E-03     16.5727E-03
            1182            1601     16.4026E-03     16.5727E-03
            1164            1601     16.4026E-03     16.5727E-03
            1165            1601     16.4026E-03     16.5727E-03
            1183            1602     14.8536E-03     15.6696E-03
            1165            1602     14.8536E-03     15.6696E-03
            1182            1602     14.8536E-03     15.6696E-03
            1166            1602     14.8536E-03     15.6696E-03
            1184            1603     26.3350E-03     26.5341E-03
            1167            1603     26.3350E-03     26.5341E-03
            1185            1603     26.3350E-03     26.5341E-03
            1168            1603     26.3350E-03     26.5341E-03
            1186            1604     29.2590E-03     29.2474E-03
            1185            1604     29.2590E-03     29.2474E-03
            1168            1604     29.2590E-03     29.2474E-03
            1169            1604     29.2590E-03     29.2474E-03
            1186            1605     31.6729E-03     30.8785E-03
            1187            1605     31.6729E-03     30.8785E-03
            1169            1605     31.6729E-03     30.8785E-03
            1170            1605     31.6729E-03     30.8785E-03
            1187            1606     30.8627E-03     29.9409E-03
            1188            1606     30.8627E-03     29.9409E-03
            1170            1606     30.8627E-03     29.9409E-03
            1171            1606     30.8627E-03     29.9409E-03
            1188            1607     29.1660E-03     28.2864E-03
            1189            1607     29.1660E-03     28.2864E-03
            1171            1607     29.1660E-03     28.2864E-03
            1172            1607     29.1660E-03     28.2864E-03
            1173            1608     27.3421E-03     26.5001E-03
            1189            1608     27.3421E-03     26.5001E-03
            1190            1608     27.3421E-03     26.5001E-03
            1172            1608     27.3421E-03     26.5001E-03
            1190            1609     25.5468E-03     24.7535E-03
            1191            1609     25.5468E-03     24.7535E-03
            1173            1609     25.5468E-03     24.7535E-03
            1174            1609     25.5468E-03     24.7535E-03
            1175            1610     23.8632E-03     23.1182E-03
            1191            1610     23.8632E-03     23.1182E-03
            1192            1610     23.8632E-03     23.1182E-03
            1174            1610     23.8632E-03     23.1182E-03
            1176            1611     22.2945E-03     21.6058E-03
            1192            1611     22.2945E-03     21.6058E-03
            1193            1611     22.2945E-03     21.6058E-03
            1175            1611     22.2945E-03     21.6058E-03
            1193            1612     20.8561E-03     20.2335E-03
            1194            1612     20.8561E-03     20.2335E-03
            1176            1612     20.8561E-03     20.2335E-03
            1177            1612     20.8561E-03     20.2335E-03
            1178            1613     19.5629E-03     19.0095E-03
            1194            1613     19.5629E-03     19.0095E-03
            1195            1613     19.5629E-03     19.0095E-03
            1177            1613     19.5629E-03     19.0095E-03
            1179            1614     18.4291E-03     17.9813E-03
            1195            1614     18.4291E-03     17.9813E-03
            1196            1614     18.4291E-03     17.9813E-03
            1178            1614     18.4291E-03     17.9813E-03
            1196            1615     17.4594E-03     17.1290E-03
            1197            1615     17.4594E-03     17.1290E-03
            1180            1615     17.4594E-03     17.1290E-03
            1179            1615     17.4594E-03     17.1290E-03
            1180            1616     16.5396E-03     16.4093E-03
            1197            1616     16.5396E-03     16.4093E-03
            1181            1616     16.5396E-03     16.4093E-03
            1198            1616     16.5396E-03     16.4093E-03
            1181            1617     15.5653E-03     15.5966E-03
            1199            1617     15.5653E-03     15.5966E-03
            1198            1617     15.5653E-03     15.5966E-03
            1182            1617     15.5653E-03     15.5966E-03
            1200            1618     14.2149E-03     13.7242E-03
            1182            1618     14.2149E-03     13.7242E-03
            1199            1618     14.2149E-03     13.7242E-03
            1183            1618     14.2149E-03     13.7242E-03
            1201            1619     34.1980E-03     35.0677E-03
            1184            1619     34.1980E-03     35.0677E-03
            1185            1619     34.1980E-03     35.0677E-03
            1202            1619     34.1980E-03     35.0677E-03
            1185            1620     32.8560E-03     33.8903E-03
            1203            1620     32.8560E-03     33.8903E-03
            1202            1620     32.8560E-03     33.8903E-03
            1186            1620     32.8560E-03     33.8903E-03
            1186            1621     32.3584E-03     33.0991E-03
            1203            1621     32.3584E-03     33.0991E-03
            1204            1621     32.3584E-03     33.0991E-03
            1187            1621     32.3584E-03     33.0991E-03
            1205            1622     30.5838E-03     31.1421E-03
            1204            1622     30.5838E-03     31.1421E-03
            1188            1622     30.5838E-03     31.1421E-03
            1187            1622     30.5838E-03     31.1421E-03
            1188            1623     28.5010E-03     29.0335E-03
            1205            1623     28.5010E-03     29.0335E-03
            1189            1623     28.5010E-03     29.0335E-03
            1206            1623     28.5010E-03     29.0335E-03
            1190            1624     26.4600E-03     26.9209E-03
            1189            1624     26.4600E-03     26.9209E-03
            1207            1624     26.4600E-03     26.9209E-03
            1206            1624     26.4600E-03     26.9209E-03
            1191            1625     24.4957E-03     24.9491E-03
            1207            1625     24.4957E-03     24.9491E-03
            1208            1625     24.4957E-03     24.9491E-03
            1190            1625     24.4957E-03     24.9491E-03
            1209            1626     22.6969E-03     23.1159E-03
            1192            1626     22.6969E-03     23.1159E-03
            1191            1626     22.6969E-03     23.1159E-03
            1208            1626     22.6969E-03     23.1159E-03
            1210            1627     21.0341E-03     21.4282E-03
            1209            1627     21.0341E-03     21.4282E-03
            1192            1627     21.0341E-03     21.4282E-03
            1193            1627     21.0341E-03     21.4282E-03
            1193            1628     19.5426E-03     19.8937E-03
            1211            1628     19.5426E-03     19.8937E-03
            1210            1628     19.5426E-03     19.8937E-03
            1194            1628     19.5426E-03     19.8937E-03
            1194            1629     18.2316E-03     18.5439E-03
            1211            1629     18.2316E-03     18.5439E-03
            1195            1629     18.2316E-03     18.5439E-03
            1212            1629     18.2316E-03     18.5439E-03
            1195            1630     17.1413E-03     17.3871E-03
            1213            1630     17.1413E-03     17.3871E-03
            1212            1630     17.1413E-03     17.3871E-03
            1196            1630     17.1413E-03     17.3871E-03
            1197            1631     16.2607E-03     16.4718E-03
            1196            1631     16.2607E-03     16.4718E-03
            1213            1631     16.2607E-03     16.4718E-03
            1214            1631     16.2607E-03     16.4718E-03
            1215            1632     15.5655E-03     15.6777E-03
            1197            1632     15.5655E-03     15.6777E-03
            1198            1632     15.5655E-03     15.6777E-03
            1214            1632     15.5655E-03     15.6777E-03
            1198            1633     14.7894E-03     14.2374E-03
            1215            1633     14.7894E-03     14.2374E-03
            1216            1633     14.7894E-03     14.2374E-03
            1199            1633     14.7894E-03     14.2374E-03
            1217            1634     13.3891E-03     11.8748E-03
            1216            1634     13.3891E-03     11.8748E-03
            1199            1634     13.3891E-03     11.8748E-03
            1200            1634     13.3891E-03     11.8748E-03
            1201            1635     42.4215E-03     42.8603E-03
            1218            1635     42.4215E-03     42.8603E-03
            1219            1635     42.4215E-03     42.8603E-03
            1202            1635     42.4215E-03     42.8603E-03
            1219            1636     35.9669E-03     37.4885E-03
            1203            1636     35.9669E-03     37.4885E-03
            1202            1636     35.9669E-03     37.4885E-03
            1220            1636     35.9669E-03     37.4885E-03
            1204            1637     31.6564E-03     33.7472E-03
            1220            1637     31.6564E-03     33.7472E-03
            1221            1637     31.6564E-03     33.7472E-03
            1203            1637     31.6564E-03     33.7472E-03
            1221            1638     29.3025E-03     31.3202E-03
            1222            1638     29.3025E-03     31.3202E-03
            1205            1638     29.3025E-03     31.3202E-03
            1204            1638     29.3025E-03     31.3202E-03
            1205            1639     27.2060E-03     29.0661E-03
            1223            1639     27.2060E-03     29.0661E-03
            1206            1639     27.2060E-03     29.0661E-03
            1222            1639     27.2060E-03     29.0661E-03
            1223            1640     25.1337E-03     26.9507E-03
            1206            1640     25.1337E-03     26.9507E-03
            1207            1640     25.1337E-03     26.9507E-03
            1224            1640     25.1337E-03     26.9507E-03
            1225            1641     23.2199E-03     24.9470E-03
            1208            1641     23.2199E-03     24.9470E-03
            1224            1641     23.2199E-03     24.9470E-03
            1207            1641     23.2199E-03     24.9470E-03
            1225            1642     21.3818E-03     23.0400E-03
            1209            1642     21.3818E-03     23.0400E-03
            1208            1642     21.3818E-03     23.0400E-03
            1226            1642     21.3818E-03     23.0400E-03
            1210            1643     19.6975E-03     21.2545E-03
            1209            1643     19.6975E-03     21.2545E-03
            1227            1643     19.6975E-03     21.2545E-03
            1226            1643     19.6975E-03     21.2545E-03
            1227            1644     18.1653E-03     19.5973E-03
            1228            1644     18.1653E-03     19.5973E-03
            1211            1644     18.1653E-03     19.5973E-03
            1210            1644     18.1653E-03     19.5973E-03
            1228            1645     16.8402E-03     18.1053E-03
            1211            1645     16.8402E-03     18.1053E-03
            1229            1645     16.8402E-03     18.1053E-03
            1212            1645     16.8402E-03     18.1053E-03
            1230            1646     15.7473E-03     16.8104E-03
            1213            1646     15.7473E-03     16.8104E-03
            1212            1646     15.7473E-03     16.8104E-03
            1229            1646     15.7473E-03     16.8104E-03
            1213            1647     14.9126E-03     15.6966E-03
            1214            1647     14.9126E-03     15.6966E-03
            1231            1647     14.9126E-03     15.6966E-03
            1230            1647     14.9126E-03     15.6966E-03
            1214            1648     14.3409E-03     14.7057E-03
            1231            1648     14.3409E-03     14.7057E-03
            1232            1648     14.3409E-03     14.7057E-03
            1215            1648     14.3409E-03     14.7057E-03
            1215            1649     13.7744E-03     13.4920E-03
            1232            1649     13.7744E-03     13.4920E-03
            1233            1649     13.7744E-03     13.4920E-03
            1216            1649     13.7744E-03     13.4920E-03
            1233            1650     12.6263E-03     11.5314E-03
            1216            1650     12.6263E-03     11.5314E-03
            1217            1650     12.6263E-03     11.5314E-03
            1234            1650     12.6263E-03     11.5314E-03
            1236            1651     47.2575E-03     49.9896E-03
            1219            1651     47.2575E-03     49.9896E-03
            1235            1651     47.2575E-03     49.9896E-03
            1218            1651     47.2575E-03     49.9896E-03
            1237            1652     35.5520E-03     38.9132E-03
            1220            1652     35.5520E-03     38.9132E-03
            1236            1652     35.5520E-03     38.9132E-03
            1219            1652     35.5520E-03     38.9132E-03
            1237            1653     30.3742E-03     33.7368E-03
            1220            1653     30.3742E-03     33.7368E-03
            1221            1653     30.3742E-03     33.7368E-03
            1238            1653     30.3742E-03     33.7368E-03
            1221            1654     27.6772E-03     30.9998E-03
            1238            1654     27.6772E-03     30.9998E-03
            1222            1654     27.6772E-03     30.9998E-03
            1239            1654     27.6772E-03     30.9998E-03
            1223            1655     25.5222E-03     28.7713E-03
            1240            1655     25.5222E-03     28.7713E-03
            1222            1655     25.5222E-03     28.7713E-03
            1239            1655     25.5222E-03     28.7713E-03
            1224            1656     23.6039E-03     26.7726E-03
            1223            1656     23.6039E-03     26.7726E-03
            1241            1656     23.6039E-03     26.7726E-03
            1240            1656     23.6039E-03     26.7726E-03
            1241            1657     21.7199E-03     24.8011E-03
            1242            1657     21.7199E-03     24.8011E-03
            1224            1657     21.7199E-03     24.8011E-03
            1225            1657     21.7199E-03     24.8011E-03
            1226            1658     19.9335E-03     22.8975E-03
            1242            1658     19.9335E-03     22.8975E-03
            1243            1658     19.9335E-03     22.8975E-03
            1225            1658     19.9335E-03     22.8975E-03
            1226            1659     18.2356E-03     21.0452E-03
            1243            1659     18.2356E-03     21.0452E-03
            1227            1659     18.2356E-03     21.0452E-03
            1244            1659     18.2356E-03     21.0452E-03
            1227            1660     16.6918E-03     19.3054E-03
            1245            1660     16.6918E-03     19.3054E-03
            1228            1660     16.6918E-03     19.3054E-03
            1244            1660     16.6918E-03     19.3054E-03
            1228            1661     15.3372E-03     17.6771E-03
            1245            1661     15.3372E-03     17.6771E-03
            1246            1661     15.3372E-03     17.6771E-03
            1229            1661     15.3372E-03     17.6771E-03
            1229            1662     14.2118E-03     16.2053E-03
            1230            1662     14.2118E-03     16.2053E-03
            1246            1662     14.2118E-03     16.2053E-03
            1247            1662     14.2118E-03     16.2053E-03
            1231            1663     13.3653E-03     14.8626E-03
            1230            1663     13.3653E-03     14.8626E-03
            1247            1663     13.3653E-03     14.8626E-03
            1248            1663     13.3653E-03     14.8626E-03
            1231            1664     12.7445E-03     13.5842E-03
            1248            1664     12.7445E-03     13.5842E-03
            1249            1664     12.7445E-03     13.5842E-03
            1232            1664     12.7445E-03     13.5842E-03
            1232            1665     12.5183E-03     12.6661E-03
            1233            1665     12.5183E-03     12.6661E-03
            1250            1665     12.5183E-03     12.6661E-03
            1249            1665     12.5183E-03     12.6661E-03
            1234            1666     12.4604E-03     11.6166E-03
            1251            1666     12.4604E-03     11.6166E-03
            1233            1666     12.4604E-03     11.6166E-03
            1250            1666     12.4604E-03     11.6166E-03
            1235            1667     50.3793E-03     51.3593E-03
            1236            1667     50.3793E-03     51.3593E-03
            1252            1667     50.3793E-03     51.3593E-03
            1253            1667     50.3793E-03     51.3593E-03
            1237            1668     46.6131E-03     46.8341E-03
            1254            1668     46.6131E-03     46.8341E-03
            1253            1668     46.6131E-03     46.8341E-03
            1236            1668     46.6131E-03     46.8341E-03
            1254            1669     44.4057E-03     44.8065E-03
            1237            1669     44.4057E-03     44.8065E-03
            1255            1669     44.4057E-03     44.8065E-03
            1238            1669     44.4057E-03     44.8065E-03
            1238            1670     42.2293E-03     42.8603E-03
            1239            1670     42.2293E-03     42.8603E-03
            1255            1670     42.2293E-03     42.8603E-03
            1256            1670     42.2293E-03     42.8603E-03
            1239            1671     39.8403E-03     40.6116E-03
            1257            1671     39.8403E-03     40.6116E-03
            1240            1671     39.8403E-03     40.6116E-03
            1256            1671     39.8403E-03     40.6116E-03
            1241            1672     37.2681E-03     38.1298E-03
            1240            1672     37.2681E-03     38.1298E-03
            1258            1672     37.2681E-03     38.1298E-03
            1257            1672     37.2681E-03     38.1298E-03
            1259            1673     34.5301E-03     35.4162E-03
            1241            1673     34.5301E-03     35.4162E-03
            1258            1673     34.5301E-03     35.4162E-03
            1242            1673     34.5301E-03     35.4162E-03
            1259            1674     31.7454E-03     32.6340E-03
            1260            1674     31.7454E-03     32.6340E-03
            1243            1674     31.7454E-03     32.6340E-03
            1242            1674     31.7454E-03     32.6340E-03
            1260            1675     28.9825E-03     29.8454E-03
            1244            1675     28.9825E-03     29.8454E-03
            1243            1675     28.9825E-03     29.8454E-03
            1261            1675     28.9825E-03     29.8454E-03
            1245            1676     26.3124E-03     27.1196E-03
            1261            1676     26.3124E-03     27.1196E-03
            1262            1676     26.3124E-03     27.1196E-03
            1244            1676     26.3124E-03     27.1196E-03
            1245            1677     23.7897E-03     24.5303E-03
            1263            1677     23.7897E-03     24.5303E-03
            1262            1677     23.7897E-03     24.5303E-03
            1246            1677     23.7897E-03     24.5303E-03
            1264            1678     21.4911E-03     22.0981E-03
            1247            1678     21.4911E-03     22.0981E-03
            1263            1678     21.4911E-03     22.0981E-03
            1246            1678     21.4911E-03     22.0981E-03
            1264            1679     19.4620E-03     19.9240E-03
            1248            1679     19.4620E-03     19.9240E-03
            1247            1679     19.4620E-03     19.9240E-03
            1265            1679     19.4620E-03     19.9240E-03
            1265            1680     17.7183E-03     17.9650E-03
            1266            1680     17.7183E-03     17.9650E-03
            1249            1680     17.7183E-03     17.9650E-03
            1248            1680     17.7183E-03     17.9650E-03
            1266            1681     16.4249E-03     16.5987E-03
            1249            1681     16.4249E-03     16.5987E-03
            1267            1681     16.4249E-03     16.5987E-03
            1250            1681     16.4249E-03     16.5987E-03
            1250            1682     15.1958E-03     16.0927E-03
            1251            1682     15.1958E-03     16.0927E-03
            1268            1682     15.1958E-03     16.0927E-03
            1267            1682     15.1958E-03     16.0927E-03
            1270            1683     56.6693E-03     54.7164E-03
            1252            1683     56.6693E-03     54.7164E-03
            1253            1683     56.6693E-03     54.7164E-03
            1269            1683     56.6693E-03     54.7164E-03
            1254            1684     60.7081E-03     58.6504E-03
            1253            1684     60.7081E-03     58.6504E-03
            1270            1684     60.7081E-03     58.6504E-03
            1271            1684     60.7081E-03     58.6504E-03
            1271            1685     61.0588E-03     58.9399E-03
            1254            1685     61.0588E-03     58.9399E-03
            1272            1685     61.0588E-03     58.9399E-03
            1255            1685     61.0588E-03     58.9399E-03
            1255            1686     58.9534E-03     57.0598E-03
            1273            1686     58.9534E-03     57.0598E-03
            1272            1686     58.9534E-03     57.0598E-03
            1256            1686     58.9534E-03     57.0598E-03
            1274            1687     55.7882E-03     54.0661E-03
            1273            1687     55.7882E-03     54.0661E-03
            1257            1687     55.7882E-03     54.0661E-03
            1256            1687     55.7882E-03     54.0661E-03
            1274            1688     52.0254E-03     50.4260E-03
            1257            1688     52.0254E-03     50.4260E-03
            1275            1688     52.0254E-03     50.4260E-03
            1258            1688     52.0254E-03     50.4260E-03
            1258            1689     48.0003E-03     46.5357E-03
            1276            1689     48.0003E-03     46.5357E-03
            1275            1689     48.0003E-03     46.5357E-03
            1259            1689     48.0003E-03     46.5357E-03
            1277            1690     43.9175E-03     42.5299E-03
            1260            1690     43.9175E-03     42.5299E-03
            1259            1690     43.9175E-03     42.5299E-03
            1276            1690     43.9175E-03     42.5299E-03
            1260            1691     39.8352E-03     38.5447E-03
            1277            1691     39.8352E-03     38.5447E-03
            1278            1691     39.8352E-03     38.5447E-03
            1261            1691     39.8352E-03     38.5447E-03
            1262            1692     35.8524E-03     34.6506E-03
            1279            1692     35.8524E-03     34.6506E-03
            1278            1692     35.8524E-03     34.6506E-03
            1261            1692     35.8524E-03     34.6506E-03
            1262            1693     32.0245E-03     30.9341E-03
            1263            1693     32.0245E-03     30.9341E-03
            1279            1693     32.0245E-03     30.9341E-03
            1280            1693     32.0245E-03     30.9341E-03
            1280            1694     28.4206E-03     27.4865E-03
            1263            1694     28.4206E-03     27.4865E-03
            1281            1694     28.4206E-03     27.4865E-03
            1264            1694     28.4206E-03     27.4865E-03
            1265            1695     25.1602E-03     24.4514E-03
            1281            1695     25.1602E-03     24.4514E-03
            1282            1695     25.1602E-03     24.4514E-03
            1264            1695     25.1602E-03     24.4514E-03
            1265            1696     22.2526E-03     21.9680E-03
            1282            1696     22.2526E-03     21.9680E-03
            1266            1696     22.2526E-03     21.9680E-03
            1283            1696     22.2526E-03     21.9680E-03
            1284            1697     19.7009E-03     20.4141E-03
            1266            1697     19.7009E-03     20.4141E-03
            1283            1697     19.7009E-03     20.4141E-03
            1267            1697     19.7009E-03     20.4141E-03
            1285            1698     17.5215E-03     19.5589E-03
            1284            1698     17.5215E-03     19.5589E-03
            1267            1698     17.5215E-03     19.5589E-03
            1268            1698     17.5215E-03     19.5589E-03
            1287            1699     64.4988E-03     65.4263E-03
            1269            1699     64.4988E-03     65.4263E-03
            1270            1699     64.4988E-03     65.4263E-03
            1286            1699     64.4988E-03     65.4263E-03
            1271            1700     64.9925E-03     65.5442E-03
            1288            1700     64.9925E-03     65.5442E-03
            1287            1700     64.9925E-03     65.5442E-03
            1270            1700     64.9925E-03     65.5442E-03
            1289            1701     64.2775E-03     64.2828E-03
            1288            1701     64.2775E-03     64.2828E-03
            1272            1701     64.2775E-03     64.2828E-03
            1271            1701     64.2775E-03     64.2828E-03
            1273            1702     61.1516E-03     60.8412E-03
            1289            1702     61.1516E-03     60.8412E-03
            1290            1702     61.1516E-03     60.8412E-03
            1272            1702     61.1516E-03     60.8412E-03
            1273            1703     56.9552E-03     56.5397E-03
            1274            1703     56.9552E-03     56.5397E-03
            1290            1703     56.9552E-03     56.5397E-03
            1291            1703     56.9552E-03     56.5397E-03
            1291            1704     52.3356E-03     51.9343E-03
            1274            1704     52.3356E-03     51.9343E-03
            1275            1704     52.3356E-03     51.9343E-03
            1292            1704     52.3356E-03     51.9343E-03
            1276            1705     47.6953E-03     47.2935E-03
            1275            1705     47.6953E-03     47.2935E-03
            1292            1705     47.6953E-03     47.2935E-03
            1293            1705     47.6953E-03     47.2935E-03
            1276            1706     43.0792E-03     42.7062E-03
            1293            1706     43.0792E-03     42.7062E-03
            1294            1706     43.0792E-03     42.7062E-03
            1277            1706     43.0792E-03     42.7062E-03
            1278            1707     38.5936E-03     38.2329E-03
            1295            1707     38.5936E-03     38.2329E-03
            1277            1707     38.5936E-03     38.2329E-03
            1294            1707     38.5936E-03     38.2329E-03
            1296            1708     34.2507E-03     33.9161E-03
            1279            1708     34.2507E-03     33.9161E-03
            1278            1708     34.2507E-03     33.9161E-03
            1295            1708     34.2507E-03     33.9161E-03
            1297            1709     30.1288E-03     29.8178E-03
            1280            1709     30.1288E-03     29.8178E-03
            1296            1709     30.1288E-03     29.8178E-03
            1279            1709     30.1288E-03     29.8178E-03
            1297            1710     26.2855E-03     26.0462E-03
            1298            1710     26.2855E-03     26.0462E-03
            1281            1710     26.2855E-03     26.0462E-03
            1280            1710     26.2855E-03     26.0462E-03
            1298            1711     22.8256E-03     22.7257E-03
            1282            1711     22.8256E-03     22.7257E-03
            1281            1711     22.8256E-03     22.7257E-03
            1299            1711     22.8256E-03     22.7257E-03
            1299            1712     19.8404E-03     20.1264E-03
            1300            1712     19.8404E-03     20.1264E-03
            1282            1712     19.8404E-03     20.1264E-03
            1283            1712     19.8404E-03     20.1264E-03
            1300            1713     17.5673E-03     18.3026E-03
            1283            1713     17.5673E-03     18.3026E-03
            1301            1713     17.5673E-03     18.3026E-03
            1284            1713     17.5673E-03     18.3026E-03
            1301            1714     16.2966E-03     16.2650E-03
            1285            1714     16.2966E-03     16.2650E-03
            1302            1714     16.2966E-03     16.2650E-03
            1284            1714     16.2966E-03     16.2650E-03
            1287            1715     73.0406E-03     74.1753E-03
            1303            1715     73.0406E-03     74.1753E-03
            1286            1715     73.0406E-03     74.1753E-03
            1304            1715     73.0406E-03     74.1753E-03
            1304            1716     69.5495E-03     71.4468E-03
            1287            1716     69.5495E-03     71.4468E-03
            1305            1716     69.5495E-03     71.4468E-03
            1288            1716     69.5495E-03     71.4468E-03
            1305            1717     66.5073E-03     67.9711E-03
            1306            1717     66.5073E-03     67.9711E-03
            1288            1717     66.5073E-03     67.9711E-03
            1289            1717     66.5073E-03     67.9711E-03
            1306            1718     62.1819E-03     63.2472E-03
            1307            1718     62.1819E-03     63.2472E-03
            1289            1718     62.1819E-03     63.2472E-03
            1290            1718     62.1819E-03     63.2472E-03
            1307            1719     57.1130E-03     58.0293E-03
            1308            1719     57.1130E-03     58.0293E-03
            1291            1719     57.1130E-03     58.0293E-03
            1290            1719     57.1130E-03     58.0293E-03
            1292            1720     52.0738E-03     52.8642E-03
            1308            1720     52.0738E-03     52.8642E-03
            1309            1720     52.0738E-03     52.8642E-03
            1291            1720     52.0738E-03     52.8642E-03
            1310            1721     47.0300E-03     47.7599E-03
            1292            1721     47.0300E-03     47.7599E-03
            1293            1721     47.0300E-03     47.7599E-03
            1309            1721     47.0300E-03     47.7599E-03
            1293            1722     42.1224E-03     42.8129E-03
            1310            1722     42.1224E-03     42.8129E-03
            1311            1722     42.1224E-03     42.8129E-03
            1294            1722     42.1224E-03     42.8129E-03
            1295            1723     37.3462E-03     38.0078E-03
            1311            1723     37.3462E-03     38.0078E-03
            1294            1723     37.3462E-03     38.0078E-03
            1312            1723     37.3462E-03     38.0078E-03
            1312            1724     32.7583E-03     33.3832E-03
            1313            1724     32.7583E-03     33.3832E-03
            1295            1724     32.7583E-03     33.3832E-03
            1296            1724     32.7583E-03     33.3832E-03
            1296            1725     28.3858E-03     28.9809E-03
            1313            1725     28.3858E-03     28.9809E-03
            1314            1725     28.3858E-03     28.9809E-03
            1297            1725     28.3858E-03     28.9809E-03
            1315            1726     24.3475E-03     24.9038E-03
            1314            1726     24.3475E-03     24.9038E-03
            1297            1726     24.3475E-03     24.9038E-03
            1298            1726     24.3475E-03     24.9038E-03
            1298            1727     20.7329E-03     21.2751E-03
            1315            1727     20.7329E-03     21.2751E-03
            1316            1727     20.7329E-03     21.2751E-03
            1299            1727     20.7329E-03     21.2751E-03
            1300            1728     17.7308E-03     18.2255E-03
            1299            1728     17.7308E-03     18.2255E-03
            1316            1728     17.7308E-03     18.2255E-03
            1317            1728     17.7308E-03     18.2255E-03
            1318            1729     15.6864E-03     15.5088E-03
            1300            1729     15.6864E-03     15.5088E-03
            1301            1729     15.6864E-03     15.5088E-03
            1317            1729     15.6864E-03     15.5088E-03
            1318            1730     14.3207E-03     12.9394E-03
            1319            1730     14.3207E-03     12.9394E-03
            1302            1730     14.3207E-03     12.9394E-03
            1301            1730     14.3207E-03     12.9394E-03
            1320            1731     80.5503E-03     82.4750E-03
            1321            1731     80.5503E-03     82.4750E-03
            1303            1731     80.5503E-03     82.4750E-03
            1304            1731     80.5503E-03     82.4750E-03
            1304            1732     74.1749E-03     76.1778E-03
            1305            1732     74.1749E-03     76.1778E-03
            1322            1732     74.1749E-03     76.1778E-03
            1321            1732     74.1749E-03     76.1778E-03
            1305            1733     67.7070E-03     69.9659E-03
            1322            1733     67.7070E-03     69.9659E-03
            1306            1733     67.7070E-03     69.9659E-03
            1323            1733     67.7070E-03     69.9659E-03
            1306            1734     61.6880E-03     63.9638E-03
            1307            1734     61.6880E-03     63.9638E-03
            1323            1734     61.6880E-03     63.9638E-03
            1324            1734     61.6880E-03     63.9638E-03
            1307            1735     56.3108E-03     58.3961E-03
            1324            1735     56.3108E-03     58.3961E-03
            1325            1735     56.3108E-03     58.3961E-03
            1308            1735     56.3108E-03     58.3961E-03
            1309            1736     51.0293E-03     52.9663E-03
            1325            1736     51.0293E-03     52.9663E-03
            1308            1736     51.0293E-03     52.9663E-03
            1326            1736     51.0293E-03     52.9663E-03
            1309            1737     45.8919E-03     47.7509E-03
            1310            1737     45.8919E-03     47.7509E-03
            1326            1737     45.8919E-03     47.7509E-03
            1327            1737     45.8919E-03     47.7509E-03
            1327            1738     40.8681E-03     42.6578E-03
            1328            1738     40.8681E-03     42.6578E-03
            1311            1738     40.8681E-03     42.6578E-03
            1310            1738     40.8681E-03     42.6578E-03
            1329            1739     35.9677E-03     37.7069E-03
            1311            1739     35.9677E-03     37.7069E-03
            1312            1739     35.9677E-03     37.7069E-03
            1328            1739     35.9677E-03     37.7069E-03
            1330            1740     31.2187E-03     32.8966E-03
            1329            1740     31.2187E-03     32.8966E-03
            1312            1740     31.2187E-03     32.8966E-03
            1313            1740     31.2187E-03     32.8966E-03
            1331            1741     26.6893E-03     28.2801E-03
            1330            1741     26.6893E-03     28.2801E-03
            1313            1741     26.6893E-03     28.2801E-03
            1314            1741     26.6893E-03     28.2801E-03
            1314            1742     22.4450E-03     23.9104E-03
            1331            1742     22.4450E-03     23.9104E-03
            1332            1742     22.4450E-03     23.9104E-03
            1315            1742     22.4450E-03     23.9104E-03
            1315            1743     18.7033E-03     19.9404E-03
            1316            1743     18.7033E-03     19.9404E-03
            1332            1743     18.7033E-03     19.9404E-03
            1333            1743     18.7033E-03     19.9404E-03
            1333            1744     15.7138E-03     16.3338E-03
            1317            1744     15.7138E-03     16.3338E-03
            1316            1744     15.7138E-03     16.3338E-03
            1334            1744     15.7138E-03     16.3338E-03
            1317            1745     13.5257E-03     13.0218E-03
            1335            1745     13.5257E-03     13.0218E-03
            1318            1745     13.5257E-03     13.0218E-03
            1334            1745     13.5257E-03     13.0218E-03
            1336            1746     12.4460E-03     10.6759E-03
            1318            1746     12.4460E-03     10.6759E-03
            1319            1746     12.4460E-03     10.6759E-03
            1335            1746     12.4460E-03     10.6759E-03
            1320            1747     88.0658E-03     89.0479E-03
            1337            1747     88.0658E-03     89.0479E-03
            1321            1747     88.0658E-03     89.0479E-03
            1338            1747     88.0658E-03     89.0479E-03
            1321            1748     76.5037E-03     78.8549E-03
            1322            1748     76.5037E-03     78.8549E-03
            1338            1748     76.5037E-03     78.8549E-03
            1339            1748     76.5037E-03     78.8549E-03
            1340            1749     66.8368E-03     69.9808E-03
            1339            1749     66.8368E-03     69.9808E-03
            1323            1749     66.8368E-03     69.9808E-03
            1322            1749     66.8368E-03     69.9808E-03
            1324            1750     60.2518E-03     63.4589E-03
            1323            1750     60.2518E-03     63.4589E-03
            1340            1750     60.2518E-03     63.4589E-03
            1341            1750     60.2518E-03     63.4589E-03
            1324            1751     54.6585E-03     57.7486E-03
            1342            1751     54.6585E-03     57.7486E-03
            1341            1751     54.6585E-03     57.7486E-03
            1325            1751     54.6585E-03     57.7486E-03
            1342            1752     49.3983E-03     52.4301E-03
            1326            1752     49.3983E-03     52.4301E-03
            1343            1752     49.3983E-03     52.4301E-03
            1325            1752     49.3983E-03     52.4301E-03
            1327            1753     44.3281E-03     47.2867E-03
            1343            1753     44.3281E-03     47.2867E-03
            1326            1753     44.3281E-03     47.2867E-03
            1344            1753     44.3281E-03     47.2867E-03
            1344            1754     39.3213E-03     42.2428E-03
            1345            1754     39.3213E-03     42.2428E-03
            1328            1754     39.3213E-03     42.2428E-03
            1327            1754     39.3213E-03     42.2428E-03
            1328            1755     34.4071E-03     37.2764E-03
            1345            1755     34.4071E-03     37.2764E-03
            1346            1755     34.4071E-03     37.2764E-03
            1329            1755     34.4071E-03     37.2764E-03
            1330            1756     29.5901E-03     32.3955E-03
            1346            1756     29.5901E-03     32.3955E-03
            1329            1756     29.5901E-03     32.3955E-03
            1347            1756     29.5901E-03     32.3955E-03
            1347            1757     24.9284E-03     27.6294E-03
            1331            1757     24.9284E-03     27.6294E-03
            1330            1757     24.9284E-03     27.6294E-03
            1348            1757     24.9284E-03     27.6294E-03
            1331            1758     20.5287E-03     23.0362E-03
            1348            1758     20.5287E-03     23.0362E-03
            1349            1758     20.5287E-03     23.0362E-03
            1332            1758     20.5287E-03     23.0362E-03
            1332            1759     16.5388E-03     18.6493E-03
            1333            1759     16.5388E-03     18.6493E-03
            1350            1759     16.5388E-03     18.6493E-03
            1349            1759     16.5388E-03     18.6493E-03
            1333            1760     13.4050E-03     14.6395E-03
            1350            1760     13.4050E-03     14.6395E-03
            1334            1760     13.4050E-03     14.6395E-03
            1351            1760     13.4050E-03     14.6395E-03
            1334            1761     11.6281E-03     11.2726E-03
            1351            1761     11.6281E-03     11.2726E-03
            1352            1761     11.6281E-03     11.2726E-03
            1335            1761     11.6281E-03     11.2726E-03
            1336            1762     11.2910E-03     9.15587E-03
            1335            1762     11.2910E-03     9.15587E-03
            1352            1762     11.2910E-03     9.15587E-03
            1353            1762     11.2910E-03     9.15587E-03
            1337            1763     91.1650E-03     94.1298E-03
            1338            1763     91.1650E-03     94.1298E-03
            1354            1763     91.1650E-03     94.1298E-03
            1355            1763     91.1650E-03     94.1298E-03
            1356            1764     74.5433E-03     78.3357E-03
            1339            1764     74.5433E-03     78.3357E-03
            1338            1764     74.5433E-03     78.3357E-03
            1355            1764     74.5433E-03     78.3357E-03
            1339            1765     64.8709E-03     68.7209E-03
            1357            1765     64.8709E-03     68.7209E-03
            1356            1765     64.8709E-03     68.7209E-03
            1340            1765     64.8709E-03     68.7209E-03
            1358            1766     58.2751E-03     62.2063E-03
            1341            1766     58.2751E-03     62.2063E-03
            1340            1766     58.2751E-03     62.2063E-03
            1357            1766     58.2751E-03     62.2063E-03
            1342            1767     52.5958E-03     56.6256E-03
            1358            1767     52.5958E-03     56.6256E-03
            1359            1767     52.5958E-03     56.6256E-03
            1341            1767     52.5958E-03     56.6256E-03
            1359            1768     47.4858E-03     51.5534E-03
            1360            1768     47.4858E-03     51.5534E-03
            1343            1768     47.4858E-03     51.5534E-03
            1342            1768     47.4858E-03     51.5534E-03
            1360            1769     42.4933E-03     46.5807E-03
            1361            1769     42.4933E-03     46.5807E-03
            1344            1769     42.4933E-03     46.5807E-03
            1343            1769     42.4933E-03     46.5807E-03
            1344            1770     37.5939E-03     41.6741E-03
            1361            1770     37.5939E-03     41.6741E-03
            1345            1770     37.5939E-03     41.6741E-03
            1362            1770     37.5939E-03     41.6741E-03
            1362            1771     32.7123E-03     36.7688E-03
            1345            1771     32.7123E-03     36.7688E-03
            1346            1771     32.7123E-03     36.7688E-03
            1363            1771     32.7123E-03     36.7688E-03
            1347            1772     27.8875E-03     31.8972E-03
            1364            1772     27.8875E-03     31.8972E-03
            1363            1772     27.8875E-03     31.8972E-03
            1346            1772     27.8875E-03     31.8972E-03
            1347            1773     23.1355E-03     27.0564E-03
            1365            1773     23.1355E-03     27.0564E-03
            1364            1773     23.1355E-03     27.0564E-03
            1348            1773     23.1355E-03     27.0564E-03
            1366            1774     18.5446E-03     22.2842E-03
            1348            1774     18.5446E-03     22.2842E-03
            1365            1774     18.5446E-03     22.2842E-03
            1349            1774     18.5446E-03     22.2842E-03
            1367            1775     14.2704E-03     17.5761E-03
            1349            1775     14.2704E-03     17.5761E-03
            1350            1775     14.2704E-03     17.5761E-03
            1366            1775     14.2704E-03     17.5761E-03
            1368            1776     10.6568E-03     13.0588E-03
            1351            1776     10.6568E-03     13.0588E-03
            1350            1776     10.6568E-03     13.0588E-03
            1367            1776     10.6568E-03     13.0588E-03
            1369            1777     9.17577E-03     9.52383E-03
            1368            1777     9.17577E-03     9.52383E-03
            1352            1777     9.17577E-03     9.52383E-03
            1351            1777     9.17577E-03     9.52383E-03
            1352            1778     10.7896E-03     8.81359E-03
            1353            1778     10.7896E-03     8.81359E-03
            1370            1778     10.7896E-03     8.81359E-03
            1369            1778     10.7896E-03     8.81359E-03
            1371            1779     92.6792E-03     94.4113E-03
            1354            1779     92.6792E-03     94.4113E-03
            1372            1779     92.6792E-03     94.4113E-03
            1355            1779     92.6792E-03     94.4113E-03
            1355            1780     84.7856E-03     85.3056E-03
            1372            1780     84.7856E-03     85.3056E-03
            1356            1780     84.7856E-03     85.3056E-03
            1373            1780     84.7856E-03     85.3056E-03
            1373            1781     78.9634E-03     79.6664E-03
            1357            1781     78.9634E-03     79.6664E-03
            1356            1781     78.9634E-03     79.6664E-03
            1374            1781     78.9634E-03     79.6664E-03
            1358            1782     73.1428E-03     74.2479E-03
            1375            1782     73.1428E-03     74.2479E-03
            1357            1782     73.1428E-03     74.2479E-03
            1374            1782     73.1428E-03     74.2479E-03
            1359            1783     67.4991E-03     68.8368E-03
            1375            1783     67.4991E-03     68.8368E-03
            1376            1783     67.4991E-03     68.8368E-03
            1358            1783     67.4991E-03     68.8368E-03
            1376            1784     61.7494E-03     63.2673E-03
            1377            1784     61.7494E-03     63.2673E-03
            1360            1784     61.7494E-03     63.2673E-03
            1359            1784     61.7494E-03     63.2673E-03
            1378            1785     55.9957E-03     57.5872E-03
            1361            1785     55.9957E-03     57.5872E-03
            1377            1785     55.9957E-03     57.5872E-03
            1360            1785     55.9957E-03     57.5872E-03
            1379            1786     50.1993E-03     51.8604E-03
            1378            1786     50.1993E-03     51.8604E-03
            1362            1786     50.1993E-03     51.8604E-03
            1361            1786     50.1993E-03     51.8604E-03
            1380            1787     44.4167E-03     46.0893E-03
            1379            1787     44.4167E-03     46.0893E-03
            1362            1787     44.4167E-03     46.0893E-03
            1363            1787     44.4167E-03     46.0893E-03
            1363            1788     38.6517E-03     40.3699E-03
            1380            1788     38.6517E-03     40.3699E-03
            1381            1788     38.6517E-03     40.3699E-03
            1364            1788     38.6517E-03     40.3699E-03
            1364            1789     33.0137E-03     34.7323E-03
            1382            1789     33.0137E-03     34.7323E-03
            1365            1789     33.0137E-03     34.7323E-03
            1381            1789     33.0137E-03     34.7323E-03
            1383            1790     27.5147E-03     29.2340E-03
            1366            1790     27.5147E-03     29.2340E-03
            1382            1790     27.5147E-03     29.2340E-03
            1365            1790     27.5147E-03     29.2340E-03
            1366            1791     22.4229E-03     24.0368E-03
            1384            1791     22.4229E-03     24.0368E-03
            1367            1791     22.4229E-03     24.0368E-03
            1383            1791     22.4229E-03     24.0368E-03
            1385            1792     17.8923E-03     19.1579E-03
            1368            1792     17.8923E-03     19.1579E-03
            1384            1792     17.8923E-03     19.1579E-03
            1367            1792     17.8923E-03     19.1579E-03
            1386            1793     14.9326E-03     15.5609E-03
            1369            1793     14.9326E-03     15.5609E-03
            1368            1793     14.9326E-03     15.5609E-03
            1385            1793     14.9326E-03     15.5609E-03
            1369            1794     14.2289E-03     15.2872E-03
            1370            1794     14.2289E-03     15.2872E-03
            1387            1794     14.2289E-03     15.2872E-03
            1386            1794     14.2289E-03     15.2872E-03
            1371            1795     99.8658E-03     98.5508E-03
            1389            1795     99.8658E-03     98.5508E-03
            1372            1795     99.8658E-03     98.5508E-03
            1388            1795     99.8658E-03     98.5508E-03
            1389            1796     99.9087E-03     98.5113E-03
            1372            1796     99.9087E-03     98.5113E-03
            1390            1796     99.9087E-03     98.5113E-03
            1373            1796     99.9087E-03     98.5113E-03
            1390            1797     96.2099E-03     94.9509E-03
            1391            1797     96.2099E-03     94.9509E-03
            1373            1797     96.2099E-03     94.9509E-03
            1374            1797     96.2099E-03     94.9509E-03
            1391            1798     90.6322E-03     89.4926E-03
            1374            1798     90.6322E-03     89.4926E-03
            1375            1798     90.6322E-03     89.4926E-03
            1392            1798     90.6322E-03     89.4926E-03
            1393            1799     84.0899E-03     83.0955E-03
            1375            1799     84.0899E-03     83.0955E-03
            1376            1799     84.0899E-03     83.0955E-03
            1392            1799     84.0899E-03     83.0955E-03
            1393            1800     77.1631E-03     76.3229E-03
            1394            1800     77.1631E-03     76.3229E-03
            1376            1800     77.1631E-03     76.3229E-03
            1377            1800     77.1631E-03     76.3229E-03
            1377            1801     70.1626E-03     69.3709E-03
            1394            1801     70.1626E-03     69.3709E-03
            1395            1801     70.1626E-03     69.3709E-03
            1378            1801     70.1626E-03     69.3709E-03
            1395            1802     63.1006E-03     62.3829E-03
            1378            1802     63.1006E-03     62.3829E-03
            1396            1802     63.1006E-03     62.3829E-03
            1379            1802     63.1006E-03     62.3829E-03
            1396            1803     56.1014E-03     55.4179E-03
            1397            1803     56.1014E-03     55.4179E-03
            1380            1803     56.1014E-03     55.4179E-03
            1379            1803     56.1014E-03     55.4179E-03
            1397            1804     49.1713E-03     48.5417E-03
            1398            1804     49.1713E-03     48.5417E-03
            1381            1804     49.1713E-03     48.5417E-03
            1380            1804     49.1713E-03     48.5417E-03
            1381            1805     42.4281E-03     41.8477E-03
            1398            1805     42.4281E-03     41.8477E-03
            1399            1805     42.4281E-03     41.8477E-03
            1382            1805     42.4281E-03     41.8477E-03
            1399            1806     35.9521E-03     35.4473E-03
            1400            1806     35.9521E-03     35.4473E-03
            1382            1806     35.9521E-03     35.4473E-03
            1383            1806     35.9521E-03     35.4473E-03
            1400            1807     29.9394E-03     29.5582E-03
            1401            1807     29.9394E-03     29.5582E-03
            1383            1807     29.9394E-03     29.5582E-03
            1384            1807     29.9394E-03     29.5582E-03
            1384            1808     24.6536E-03     24.5775E-03
            1402            1808     24.6536E-03     24.5775E-03
            1401            1808     24.6536E-03     24.5775E-03
            1385            1808     24.6536E-03     24.5775E-03
            1402            1809     20.3528E-03     21.1959E-03
            1403            1809     20.3528E-03     21.1959E-03
            1385            1809     20.3528E-03     21.1959E-03
            1386            1809     20.3528E-03     21.1959E-03
            1403            1810     17.7251E-03     19.9923E-03
            1404            1810     17.7251E-03     19.9923E-03
            1387            1810     17.7251E-03     19.9923E-03
            1386            1810     17.7251E-03     19.9923E-03
            1406            1811     109.020E-03     110.496E-03
            1388            1811     109.020E-03     110.496E-03
            1405            1811     109.020E-03     110.496E-03
            1389            1811     109.020E-03     110.496E-03
            1407            1812     105.166E-03     107.014E-03
            1389            1812     105.166E-03     107.014E-03
            1390            1812     105.166E-03     107.014E-03
            1406            1812     105.166E-03     107.014E-03
            1391            1813     99.8939E-03     100.959E-03
            1407            1813     99.8939E-03     100.959E-03
            1390            1813     99.8939E-03     100.959E-03
            1408            1813     99.8939E-03     100.959E-03
            1392            1814     92.6366E-03     93.3709E-03
            1408            1814     92.6366E-03     93.3709E-03
            1409            1814     92.6366E-03     93.3709E-03
            1391            1814     92.6366E-03     93.3709E-03
            1393            1815     84.8595E-03     85.5245E-03
            1392            1815     84.8595E-03     85.5245E-03
            1409            1815     84.8595E-03     85.5245E-03
            1410            1815     84.8595E-03     85.5245E-03
            1411            1816     77.1542E-03     77.7555E-03
            1393            1816     77.1542E-03     77.7555E-03
            1394            1816     77.1542E-03     77.7555E-03
            1410            1816     77.1542E-03     77.7555E-03
            1411            1817     69.4644E-03     70.0700E-03
            1394            1817     69.4644E-03     70.0700E-03
            1412            1817     69.4644E-03     70.0700E-03
            1395            1817     69.4644E-03     70.0700E-03
            1413            1818     61.8971E-03     62.4958E-03
            1412            1818     61.8971E-03     62.4958E-03
            1396            1818     61.8971E-03     62.4958E-03
            1395            1818     61.8971E-03     62.4958E-03
            1396            1819     54.4207E-03     55.0240E-03
            1414            1819     54.4207E-03     55.0240E-03
            1413            1819     54.4207E-03     55.0240E-03
            1397            1819     54.4207E-03     55.0240E-03
            1414            1820     47.0860E-03     47.6745E-03
            1415            1820     47.0860E-03     47.6745E-03
            1397            1820     47.0860E-03     47.6745E-03
            1398            1820     47.0860E-03     47.6745E-03
            1399            1821     39.9282E-03     40.4902E-03
            1416            1821     39.9282E-03     40.4902E-03
            1415            1821     39.9282E-03     40.4902E-03
            1398            1821     39.9282E-03     40.4902E-03
            1416            1822     33.0657E-03     33.6004E-03
            1417            1822     33.0657E-03     33.6004E-03
            1399            1822     33.0657E-03     33.6004E-03
            1400            1822     33.0657E-03     33.6004E-03
            1401            1823     26.6808E-03     27.2105E-03
            1417            1823     26.6808E-03     27.2105E-03
            1418            1823     26.6808E-03     27.2105E-03
            1400            1823     26.6808E-03     27.2105E-03
            1402            1824     21.0531E-03     21.7810E-03
            1418            1824     21.0531E-03     21.7810E-03
            1401            1824     21.0531E-03     21.7810E-03
            1419            1824     21.0531E-03     21.7810E-03
            1419            1825     17.1898E-03     18.0597E-03
            1402            1825     17.1898E-03     18.0597E-03
            1420            1825     17.1898E-03     18.0597E-03
            1403            1825     17.1898E-03     18.0597E-03
            1403            1826     16.2049E-03     15.5588E-03
            1421            1826     16.2049E-03     15.5588E-03
            1404            1826     16.2049E-03     15.5588E-03
            1420            1826     16.2049E-03     15.5588E-03
            1422            1827     117.074E-03     120.070E-03
            1405            1827     117.074E-03     120.070E-03
            1423            1827     117.074E-03     120.070E-03
            1406            1827     117.074E-03     120.070E-03
            1424            1828     109.778E-03     112.631E-03
            1423            1828     109.778E-03     112.631E-03
            1407            1828     109.778E-03     112.631E-03
            1406            1828     109.778E-03     112.631E-03
            1425            1829     101.328E-03     104.029E-03
            1407            1829     101.328E-03     104.029E-03
            1424            1829     101.328E-03     104.029E-03
            1408            1829     101.328E-03     104.029E-03
            1425            1830     92.6283E-03     95.1188E-03
            1426            1830     92.6283E-03     95.1188E-03
            1409            1830     92.6283E-03     95.1188E-03
            1408            1830     92.6283E-03     95.1188E-03
            1410            1831     84.4516E-03     86.6671E-03
            1426            1831     84.4516E-03     86.6671E-03
            1409            1831     84.4516E-03     86.6671E-03
            1427            1831     84.4516E-03     86.6671E-03
            1428            1832     76.3567E-03     78.4331E-03
            1411            1832     76.3567E-03     78.4331E-03
            1427            1832     76.3567E-03     78.4331E-03
            1410            1832     76.3567E-03     78.4331E-03
            1411            1833     68.4070E-03     70.4245E-03
            1428            1833     68.4070E-03     70.4245E-03
            1412            1833     68.4070E-03     70.4245E-03
            1429            1833     68.4070E-03     70.4245E-03
            1412            1834     60.5612E-03     62.5478E-03
            1429            1834     60.5612E-03     62.5478E-03
            1413            1834     60.5612E-03     62.5478E-03
            1430            1834     60.5612E-03     62.5478E-03
            1431            1835     52.8234E-03     54.7826E-03
            1430            1835     52.8234E-03     54.7826E-03
            1413            1835     52.8234E-03     54.7826E-03
            1414            1835     52.8234E-03     54.7826E-03
            1414            1836     45.2093E-03     47.1303E-03
            1432            1836     45.2093E-03     47.1303E-03
            1415            1836     45.2093E-03     47.1303E-03
            1431            1836     45.2093E-03     47.1303E-03
            1415            1837     37.7609E-03     39.6197E-03
            1432            1837     37.7609E-03     39.6197E-03
            1433            1837     37.7609E-03     39.6197E-03
            1416            1837     37.7609E-03     39.6197E-03
            1434            1838     30.5650E-03     32.3324E-03
            1416            1838     30.5650E-03     32.3324E-03
            1417            1838     30.5650E-03     32.3324E-03
            1433            1838     30.5650E-03     32.3324E-03
            1434            1839     23.8494E-03     25.4784E-03
            1417            1839     23.8494E-03     25.4784E-03
            1418            1839     23.8494E-03     25.4784E-03
            1435            1839     23.8494E-03     25.4784E-03
            1435            1840     18.0875E-03     19.4048E-03
            1436            1840     18.0875E-03     19.4048E-03
            1418            1840     18.0875E-03     19.4048E-03
            1419            1840     18.0875E-03     19.4048E-03
            1419            1841     14.3605E-03     14.3817E-03
            1420            1841     14.3605E-03     14.3817E-03
            1437            1841     14.3605E-03     14.3817E-03
            1436            1841     14.3605E-03     14.3817E-03
            1420            1842     13.4277E-03     11.2965E-03
            1437            1842     13.4277E-03     11.2965E-03
            1438            1842     13.4277E-03     11.2965E-03
            1421            1842     13.4277E-03     11.2965E-03
            1439            1843     124.462E-03     126.051E-03
            1422            1843     124.462E-03     126.051E-03
            1423            1843     124.462E-03     126.051E-03
            1440            1843     124.462E-03     126.051E-03
            1441            1844     111.545E-03     114.909E-03
            1423            1844     111.545E-03     114.909E-03
            1424            1844     111.545E-03     114.909E-03
            1440            1844     111.545E-03     114.909E-03
            1441            1845     99.8371E-03     103.815E-03
            1442            1845     99.8371E-03     103.815E-03
            1424            1845     99.8371E-03     103.815E-03
            1425            1845     99.8371E-03     103.815E-03
            1443            1846     90.9845E-03     94.7774E-03
            1442            1846     90.9845E-03     94.7774E-03
            1426            1846     90.9845E-03     94.7774E-03
            1425            1846     90.9845E-03     94.7774E-03
            1427            1847     82.7550E-03     86.3319E-03
            1426            1847     82.7550E-03     86.3319E-03
            1443            1847     82.7550E-03     86.3319E-03
            1444            1847     82.7550E-03     86.3319E-03
            1444            1848     74.7338E-03     78.2271E-03
            1427            1848     74.7338E-03     78.2271E-03
            1428            1848     74.7338E-03     78.2271E-03
            1445            1848     74.7338E-03     78.2271E-03
            1446            1849     66.8346E-03     70.2673E-03
            1445            1849     66.8346E-03     70.2673E-03
            1429            1849     66.8346E-03     70.2673E-03
            1428            1849     66.8346E-03     70.2673E-03
            1446            1850     58.9723E-03     62.3796E-03
            1429            1850     58.9723E-03     62.3796E-03
            1447            1850     58.9723E-03     62.3796E-03
            1430            1850     58.9723E-03     62.3796E-03
            1430            1851     51.1766E-03     54.5578E-03
            1447            1851     51.1766E-03     54.5578E-03
            1448            1851     51.1766E-03     54.5578E-03
            1431            1851     51.1766E-03     54.5578E-03
            1432            1852     43.4472E-03     46.7861E-03
            1449            1852     43.4472E-03     46.7861E-03
            1448            1852     43.4472E-03     46.7861E-03
            1431            1852     43.4472E-03     46.7861E-03
            1450            1853     35.8296E-03     39.1096E-03
            1433            1853     35.8296E-03     39.1096E-03
            1449            1853     35.8296E-03     39.1096E-03
            1432            1853     35.8296E-03     39.1096E-03
            1451            1854     28.3935E-03     31.5607E-03
            1433            1854     28.3935E-03     31.5607E-03
            1434            1854     28.3935E-03     31.5607E-03
            1450            1854     28.3935E-03     31.5607E-03
            1452            1855     21.2902E-03     24.2439E-03
            1434            1855     21.2902E-03     24.2439E-03
            1451            1855     21.2902E-03     24.2439E-03
            1435            1855     21.2902E-03     24.2439E-03
            1436            1856     15.2409E-03     17.3970E-03
            1453            1856     15.2409E-03     17.3970E-03
            1452            1856     15.2409E-03     17.3970E-03
            1435            1856     15.2409E-03     17.3970E-03
            1436            1857     11.5718E-03     11.4066E-03
            1437            1857     11.5718E-03     11.4066E-03
            1453            1857     11.5718E-03     11.4066E-03
            1454            1857     11.5718E-03     11.4066E-03
            1454            1858     11.7485E-03     8.68960E-03
            1455            1858     11.7485E-03     8.68960E-03
            1438            1858     11.7485E-03     8.68960E-03
            1437            1858     11.7485E-03     8.68960E-03
            1439            1859     126.353E-03     129.690E-03
            1457            1859     126.353E-03     129.690E-03
            1440            1859     126.353E-03     129.690E-03
            1456            1859     126.353E-03     129.690E-03
            1457            1860     108.251E-03     112.713E-03
            1458            1860     108.251E-03     112.713E-03
            1441            1860     108.251E-03     112.713E-03
            1440            1860     108.251E-03     112.713E-03
            1441            1861     96.8339E-03     101.469E-03
            1442            1861     96.8339E-03     101.469E-03
            1459            1861     96.8339E-03     101.469E-03
            1458            1861     96.8339E-03     101.469E-03
            1460            1862     88.2056E-03     92.9338E-03
            1443            1862     88.2056E-03     92.9338E-03
            1459            1862     88.2056E-03     92.9338E-03
            1442            1862     88.2056E-03     92.9338E-03
            1443            1863     80.1848E-03     85.0191E-03
            1461            1863     80.1848E-03     85.0191E-03
            1444            1863     80.1848E-03     85.0191E-03
            1460            1863     80.1848E-03     85.0191E-03
            1462            1864     72.5161E-03     77.3789E-03
            1444            1864     72.5161E-03     77.3789E-03
            1445            1864     72.5161E-03     77.3789E-03
            1461            1864     72.5161E-03     77.3789E-03
            1463            1865     64.8451E-03     69.7141E-03
            1446            1865     64.8451E-03     69.7141E-03
            1462            1865     64.8451E-03     69.7141E-03
            1445            1865     64.8451E-03     69.7141E-03
            1464            1866     57.1877E-03     62.0474E-03
            1447            1866     57.1877E-03     62.0474E-03
            1463            1866     57.1877E-03     62.0474E-03
            1446            1866     57.1877E-03     62.0474E-03
            1465            1867     49.5020E-03     54.3346E-03
            1448            1867     49.5020E-03     54.3346E-03
            1447            1867     49.5020E-03     54.3346E-03
            1464            1867     49.5020E-03     54.3346E-03
            1466            1868     41.8191E-03     46.6353E-03
            1449            1868     41.8191E-03     46.6353E-03
            1465            1868     41.8191E-03     46.6353E-03
            1448            1868     41.8191E-03     46.6353E-03
            1467            1869     34.1592E-03     38.9347E-03
            1449            1869     34.1592E-03     38.9347E-03
            1450            1869     34.1592E-03     38.9347E-03
            1466            1869     34.1592E-03     38.9347E-03
            1467            1870     26.5728E-03     31.2850E-03
            1450            1870     26.5728E-03     31.2850E-03
            1451            1870     26.5728E-03     31.2850E-03
            1468            1870     26.5728E-03     31.2850E-03
            1468            1871     19.1515E-03     23.6627E-03
            1451            1871     19.1515E-03     23.6627E-03
            1469            1871     19.1515E-03     23.6627E-03
            1452            1871     19.1515E-03     23.6627E-03
            1452            1872     12.2323E-03     16.0449E-03
            1453            1872     12.2323E-03     16.0449E-03
            1470            1872     12.2323E-03     16.0449E-03
            1469            1872     12.2323E-03     16.0449E-03
            1453            1873     8.22457E-03     9.19720E-03
            1470            1873     8.22457E-03     9.19720E-03
            1471            1873     8.22457E-03     9.19720E-03
            1454            1873     8.22457E-03     9.19720E-03
            1472            1874     10.5897E-03     7.97443E-03
            1455            1874     10.5897E-03     7.97443E-03
            1454            1874     10.5897E-03     7.97443E-03
            1471            1874     10.5897E-03     7.97443E-03
            1473            1875     127.142E-03     129.353E-03
            1457            1875     127.142E-03     129.353E-03
            1456            1875     127.142E-03     129.353E-03
            1474            1875     127.142E-03     129.353E-03
            1474            1876     116.942E-03     117.685E-03
            1458            1876     116.942E-03     117.685E-03
            1475            1876     116.942E-03     117.685E-03
            1457            1876     116.942E-03     117.685E-03
            1458            1877     109.178E-03     110.394E-03
            1476            1877     109.178E-03     110.394E-03
            1459            1877     109.178E-03     110.394E-03
            1475            1877     109.178E-03     110.394E-03
            1476            1878     101.407E-03     103.244E-03
            1459            1878     101.407E-03     103.244E-03
            1477            1878     101.407E-03     103.244E-03
            1460            1878     101.407E-03     103.244E-03
            1461            1879     93.6800E-03     95.8664E-03
            1478            1879     93.6800E-03     95.8664E-03
            1460            1879     93.6800E-03     95.8664E-03
            1477            1879     93.6800E-03     95.8664E-03
            1479            1880     85.7035E-03     88.1903E-03
            1462            1880     85.7035E-03     88.1903E-03
            1478            1880     85.7035E-03     88.1903E-03
            1461            1880     85.7035E-03     88.1903E-03
            1463            1881     77.6266E-03     80.1985E-03
            1480            1881     77.6266E-03     80.1985E-03
            1462            1881     77.6266E-03     80.1985E-03
            1479            1881     77.6266E-03     80.1985E-03
            1480            1882     69.3892E-03     72.0561E-03
            1481            1882     69.3892E-03     72.0561E-03
            1463            1882     69.3892E-03     72.0561E-03
            1464            1882     69.3892E-03     72.0561E-03
            1464            1883     61.1274E-03     63.8127E-03
            1465            1883     61.1274E-03     63.8127E-03
            1481            1883     61.1274E-03     63.8127E-03
            1482            1883     61.1274E-03     63.8127E-03
            1465            1884     52.8451E-03     55.5696E-03
            1483            1884     52.8451E-03     55.5696E-03
            1466            1884     52.8451E-03     55.5696E-03
            1482            1884     52.8451E-03     55.5696E-03
            1466            1885     44.6432E-03     47.3892E-03
            1467            1885     44.6432E-03     47.3892E-03
            1483            1885     44.6432E-03     47.3892E-03
            1484            1885     44.6432E-03     47.3892E-03
            1484            1886     36.6264E-03     39.3731E-03
            1468            1886     36.6264E-03     39.3731E-03
            1485            1886     36.6264E-03     39.3731E-03
            1467            1886     36.6264E-03     39.3731E-03
            1485            1887     28.9299E-03     31.6101E-03
            1469            1887     28.9299E-03     31.6101E-03
            1468            1887     28.9299E-03     31.6101E-03
            1486            1887     28.9299E-03     31.6101E-03
            1469            1888     21.7876E-03     24.2596E-03
            1487            1888     21.7876E-03     24.2596E-03
            1470            1888     21.7876E-03     24.2596E-03
            1486            1888     21.7876E-03     24.2596E-03
            1470            1889     16.6055E-03     17.9968E-03
            1471            1889     16.6055E-03     17.9968E-03
            1487            1889     16.6055E-03     17.9968E-03
            1488            1889     16.6055E-03     17.9968E-03
            1472            1890     15.6479E-03     17.7939E-03
            1489            1890     15.6479E-03     17.7939E-03
            1488            1890     15.6479E-03     17.7939E-03
            1471            1890     15.6479E-03     17.7939E-03
            1473            1891     135.526E-03     134.265E-03
            1491            1891     135.526E-03     134.265E-03
            1490            1891     135.526E-03     134.265E-03
            1474            1891     135.526E-03     134.265E-03
            1492            1892     132.145E-03     131.361E-03
            1491            1892     132.145E-03     131.361E-03
            1474            1892     132.145E-03     131.361E-03
            1475            1892     132.145E-03     131.361E-03
            1492            1893     126.312E-03     125.454E-03
            1475            1893     126.312E-03     125.454E-03
            1493            1893     126.312E-03     125.454E-03
            1476            1893     126.312E-03     125.454E-03
            1476            1894     118.643E-03     118.130E-03
            1494            1894     118.643E-03     118.130E-03
            1493            1894     118.643E-03     118.130E-03
            1477            1894     118.643E-03     118.130E-03
            1478            1895     110.075E-03     109.834E-03
            1494            1895     110.075E-03     109.834E-03
            1477            1895     110.075E-03     109.834E-03
            1495            1895     110.075E-03     109.834E-03
            1496            1896     101.013E-03     100.952E-03
            1479            1896     101.013E-03     100.952E-03
            1478            1896     101.013E-03     100.952E-03
            1495            1896     101.013E-03     100.952E-03
            1480            1897     91.6875E-03     91.8027E-03
            1479            1897     91.6875E-03     91.8027E-03
            1496            1897     91.6875E-03     91.8027E-03
            1497            1897     91.6875E-03     91.8027E-03
            1481            1898     82.3183E-03     82.4996E-03
            1498            1898     82.3183E-03     82.4996E-03
            1480            1898     82.3183E-03     82.4996E-03
            1497            1898     82.3183E-03     82.4996E-03
            1481            1899     72.9167E-03     73.1750E-03
            1498            1899     72.9167E-03     73.1750E-03
            1499            1899     72.9167E-03     73.1750E-03
            1482            1899     72.9167E-03     73.1750E-03
            1499            1900     63.6269E-03     63.9153E-03
            1482            1900     63.6269E-03     63.9153E-03
            1500            1900     63.6269E-03     63.9153E-03
            1483            1900     63.6269E-03     63.9153E-03
            1501            1901     54.5033E-03     54.8200E-03
            1484            1901     54.5033E-03     54.8200E-03
            1500            1901     54.5033E-03     54.8200E-03
            1483            1901     54.5033E-03     54.8200E-03
            1485            1902     45.7194E-03     46.0637E-03
            1484            1902     45.7194E-03     46.0637E-03
            1502            1902     45.7194E-03     46.0637E-03
            1501            1902     45.7194E-03     46.0637E-03
            1485            1903     37.5298E-03     37.9039E-03
            1502            1903     37.5298E-03     37.9039E-03
            1503            1903     37.5298E-03     37.9039E-03
            1486            1903     37.5298E-03     37.9039E-03
            1487            1904     30.2764E-03     30.8887E-03
            1486            1904     30.2764E-03     30.8887E-03
            1503            1904     30.2764E-03     30.8887E-03
            1504            1904     30.2764E-03     30.8887E-03
            1504            1905     24.4634E-03     26.1719E-03
            1488            1905     24.4634E-03     26.1719E-03
            1505            1905     24.4634E-03     26.1719E-03
            1487            1905     24.4634E-03     26.1719E-03
            1488            1906     21.6565E-03     25.0376E-03
            1505            1906     21.6565E-03     25.0376E-03
            1506            1906     21.6565E-03     25.0376E-03
            1489            1906     21.6565E-03     25.0376E-03
            1491            1907     145.373E-03     147.457E-03
            1507            1907     145.373E-03     147.457E-03
            1490            1907     145.373E-03     147.457E-03
            1508            1907     145.373E-03     147.457E-03
            1491            1908     139.454E-03     141.673E-03
            1508            1908     139.454E-03     141.673E-03
            1492            1908     139.454E-03     141.673E-03
            1509            1908     139.454E-03     141.673E-03
            1492            1909     131.734E-03     133.622E-03
            1510            1909     131.734E-03     133.622E-03
            1493            1909     131.734E-03     133.622E-03
            1509            1909     131.734E-03     133.622E-03
            1493            1910     122.564E-03     123.991E-03
            1511            1910     122.564E-03     123.991E-03
            1510            1910     122.564E-03     123.991E-03
            1494            1910     122.564E-03     123.991E-03
            1495            1911     112.554E-03     113.779E-03
            1511            1911     112.554E-03     113.779E-03
            1494            1911     112.554E-03     113.779E-03
            1512            1911     112.554E-03     113.779E-03
            1513            1912     102.268E-03     103.475E-03
            1495            1912     102.268E-03     103.475E-03
            1496            1912     102.268E-03     103.475E-03
            1512            1912     102.268E-03     103.475E-03
            1514            1913     92.0352E-03     93.1946E-03
            1496            1913     92.0352E-03     93.1946E-03
            1513            1913     92.0352E-03     93.1946E-03
            1497            1913     92.0352E-03     93.1946E-03
            1498            1914     81.8182E-03     82.9972E-03
            1515            1914     81.8182E-03     82.9972E-03
            1497            1914     81.8182E-03     82.9972E-03
            1514            1914     81.8182E-03     82.9972E-03
            1499            1915     71.7387E-03     72.8985E-03
            1515            1915     71.7387E-03     72.8985E-03
            1516            1915     71.7387E-03     72.8985E-03
            1498            1915     71.7387E-03     72.8985E-03
            1516            1916     61.7680E-03     62.9260E-03
            1517            1916     61.7680E-03     62.9260E-03
            1499            1916     61.7680E-03     62.9260E-03
            1500            1916     61.7680E-03     62.9260E-03
            1518            1917     52.0227E-03     53.1459E-03
            1501            1917     52.0227E-03     53.1459E-03
            1500            1917     52.0227E-03     53.1459E-03
            1517            1917     52.0227E-03     53.1459E-03
            1501            1918     42.5549E-03     43.6784E-03
            1519            1918     42.5549E-03     43.6784E-03
            1502            1918     42.5549E-03     43.6784E-03
            1518            1918     42.5549E-03     43.6784E-03
            1502            1919     33.6306E-03     34.8343E-03
            1503            1919     33.6306E-03     34.8343E-03
            1520            1919     33.6306E-03     34.8343E-03
            1519            1919     33.6306E-03     34.8343E-03
            1520            1920     25.7260E-03     27.2354E-03
            1521            1920     25.7260E-03     27.2354E-03
            1503            1920     25.7260E-03     27.2354E-03
            1504            1920     25.7260E-03     27.2354E-03
            1521            1921     20.3131E-03     22.0759E-03
            1522            1921     20.3131E-03     22.0759E-03
            1505            1921     20.3131E-03     22.0759E-03
            1504            1921     20.3131E-03     22.0759E-03
            1522            1922     19.6240E-03     19.4143E-03
            1505            1922     19.6240E-03     19.4143E-03
            1523            1922     19.6240E-03     19.4143E-03
            1506            1922     19.6240E-03     19.4143E-03
            1508            1923     153.969E-03     156.803E-03
            1524            1923     153.969E-03     156.803E-03
            1525            1923     153.969E-03     156.803E-03
            1507            1923     153.969E-03     156.803E-03
            1525            1924     145.122E-03     148.987E-03
            1526            1924     145.122E-03     148.987E-03
            1509            1924     145.122E-03     148.987E-03
            1508            1924     145.122E-03     148.987E-03
            1509            1925     135.411E-03     138.854E-03
            1527            1925     135.411E-03     138.854E-03
            1526            1925     135.411E-03     138.854E-03
            1510            1925     135.411E-03     138.854E-03
            1527            1926     124.548E-03     127.522E-03
            1510            1926     124.548E-03     127.522E-03
            1528            1926     124.548E-03     127.522E-03
            1511            1926     124.548E-03     127.522E-03
            1512            1927     113.450E-03     116.109E-03
            1528            1927     113.450E-03     116.109E-03
            1511            1927     113.450E-03     116.109E-03
            1529            1927     113.450E-03     116.109E-03
            1529            1928     102.571E-03     104.972E-03
            1530            1928     102.571E-03     104.972E-03
            1512            1928     102.571E-03     104.972E-03
            1513            1928     102.571E-03     104.972E-03
            1531            1929     91.7626E-03     94.0387E-03
            1513            1929     91.7626E-03     94.0387E-03
            1530            1929     91.7626E-03     94.0387E-03
            1514            1929     91.7626E-03     94.0387E-03
            1531            1930     81.1157E-03     83.3112E-03
            1532            1930     81.1157E-03     83.3112E-03
            1514            1930     81.1157E-03     83.3112E-03
            1515            1930     81.1157E-03     83.3112E-03
            1516            1931     70.5798E-03     72.7313E-03
            1532            1931     70.5798E-03     72.7313E-03
            1533            1931     70.5798E-03     72.7313E-03
            1515            1931     70.5798E-03     72.7313E-03
            1517            1932     60.2011E-03     62.3009E-03
            1516            1932     60.2011E-03     62.3009E-03
            1533            1932     60.2011E-03     62.3009E-03
            1534            1932     60.2011E-03     62.3009E-03
            1534            1933     49.9693E-03     52.0345E-03
            1535            1933     49.9693E-03     52.0345E-03
            1517            1933     49.9693E-03     52.0345E-03
            1518            1933     49.9693E-03     52.0345E-03
            1536            1934     40.0201E-03     42.0480E-03
            1518            1934     40.0201E-03     42.0480E-03
            1519            1934     40.0201E-03     42.0480E-03
            1535            1934     40.0201E-03     42.0480E-03
            1520            1935     30.4809E-03     32.5187E-03
            1536            1935     30.4809E-03     32.5187E-03
            1537            1935     30.4809E-03     32.5187E-03
            1519            1935     30.4809E-03     32.5187E-03
            1520            1936     21.9880E-03     24.0756E-03
            1537            1936     21.9880E-03     24.0756E-03
            1521            1936     21.9880E-03     24.0756E-03
            1538            1936     21.9880E-03     24.0756E-03
            1522            1937     16.6661E-03     17.3764E-03
            1521            1937     16.6661E-03     17.3764E-03
            1538            1937     16.6661E-03     17.3764E-03
            1539            1937     16.6661E-03     17.3764E-03
            1523            1938     16.0455E-03     13.7405E-03
            1522            1938     16.0455E-03     13.7405E-03
            1539            1938     16.0455E-03     13.7405E-03
            1540            1938     16.0455E-03     13.7405E-03
            1541            1939     160.915E-03     164.475E-03
            1542            1939     160.915E-03     164.475E-03
            1524            1939     160.915E-03     164.475E-03
            1525            1939     160.915E-03     164.475E-03
            1525            1940     149.386E-03     153.340E-03
            1543            1940     149.386E-03     153.340E-03
            1542            1940     149.386E-03     153.340E-03
            1526            1940     149.386E-03     153.340E-03
            1526            1941     136.519E-03     140.692E-03
            1543            1941     136.519E-03     140.692E-03
            1527            1941     136.519E-03     140.692E-03
            1544            1941     136.519E-03     140.692E-03
            1527            1942     124.081E-03     128.175E-03
            1544            1942     124.081E-03     128.175E-03
            1545            1942     124.081E-03     128.175E-03
            1528            1942     124.081E-03     128.175E-03
            1529            1943     112.697E-03     116.439E-03
            1546            1943     112.697E-03     116.439E-03
            1545            1943     112.697E-03     116.439E-03
            1528            1943     112.697E-03     116.439E-03
            1529            1944     101.590E-03     105.056E-03
            1530            1944     101.590E-03     105.056E-03
            1546            1944     101.590E-03     105.056E-03
            1547            1944     101.590E-03     105.056E-03
            1531            1945     90.6920E-03     94.0200E-03
            1547            1945     90.6920E-03     94.0200E-03
            1548            1945     90.6920E-03     94.0200E-03
            1530            1945     90.6920E-03     94.0200E-03
            1548            1946     79.9275E-03     83.1535E-03
            1549            1946     79.9275E-03     83.1535E-03
            1532            1946     79.9275E-03     83.1535E-03
            1531            1946     79.9275E-03     83.1535E-03
            1532            1947     69.2563E-03     72.4306E-03
            1549            1947     69.2563E-03     72.4306E-03
            1533            1947     69.2563E-03     72.4306E-03
            1550            1947     69.2563E-03     72.4306E-03
            1533            1948     58.6861E-03     61.8082E-03
            1534            1948     58.6861E-03     61.8082E-03
            1551            1948     58.6861E-03     61.8082E-03
            1550            1948     58.6861E-03     61.8082E-03
            1552            1949     48.2340E-03     51.3037E-03
            1551            1949     48.2340E-03     51.3037E-03
            1535            1949     48.2340E-03     51.3037E-03
            1534            1949     48.2340E-03     51.3037E-03
            1536            1950     37.9254E-03     40.9448E-03
            1553            1950     37.9254E-03     40.9448E-03
            1535            1950     37.9254E-03     40.9448E-03
            1552            1950     37.9254E-03     40.9448E-03
            1536            1951     27.9767E-03     30.8908E-03
            1537            1951     27.9767E-03     30.8908E-03
            1554            1951     27.9767E-03     30.8908E-03
            1553            1951     27.9767E-03     30.8908E-03
            1537            1952     18.9468E-03     21.2934E-03
            1555            1952     18.9468E-03     21.2934E-03
            1538            1952     18.9468E-03     21.2934E-03
            1554            1952     18.9468E-03     21.2934E-03
            1539            1953     12.8541E-03     13.0222E-03
            1555            1953     12.8541E-03     13.0222E-03
            1538            1953     12.8541E-03     13.0222E-03
            1556            1953     12.8541E-03     13.0222E-03
            1557            1954     12.9528E-03     9.87494E-03
            1540            1954     12.9528E-03     9.87494E-03
            1539            1954     12.9528E-03     9.87494E-03
            1556            1954     12.9528E-03     9.87494E-03
            1541            1955     167.188E-03     169.286E-03
            1542            1955     167.188E-03     169.286E-03
            1558            1955     167.188E-03     169.286E-03
            1559            1955     167.188E-03     169.286E-03
            1559            1956     150.060E-03     153.922E-03
            1560            1956     150.060E-03     153.922E-03
            1542            1956     150.060E-03     153.922E-03
            1543            1956     150.060E-03     153.922E-03
            1561            1957     134.097E-03     138.870E-03
            1543            1957     134.097E-03     138.870E-03
            1560            1957     134.097E-03     138.870E-03
            1544            1957     134.097E-03     138.870E-03
            1561            1958     121.718E-03     126.392E-03
            1562            1958     121.718E-03     126.392E-03
            1544            1958     121.718E-03     126.392E-03
            1545            1958     121.718E-03     126.392E-03
            1562            1959     110.407E-03     114.876E-03
            1563            1959     110.407E-03     114.876E-03
            1546            1959     110.407E-03     114.876E-03
            1545            1959     110.407E-03     114.876E-03
            1547            1960     99.5217E-03     103.910E-03
            1563            1960     99.5217E-03     103.910E-03
            1564            1960     99.5217E-03     103.910E-03
            1546            1960     99.5217E-03     103.910E-03
            1564            1961     88.8756E-03     93.1607E-03
            1565            1961     88.8756E-03     93.1607E-03
            1547            1961     88.8756E-03     93.1607E-03
            1548            1961     88.8756E-03     93.1607E-03
            1566            1962     78.2652E-03     82.5284E-03
            1548            1962     78.2652E-03     82.5284E-03
            1549            1962     78.2652E-03     82.5284E-03
            1565            1962     78.2652E-03     82.5284E-03
            1567            1963     67.7258E-03     71.9443E-03
            1566            1963     67.7258E-03     71.9443E-03
            1550            1963     67.7258E-03     71.9443E-03
            1549            1963     67.7258E-03     71.9443E-03
            1551            1964     57.1976E-03     61.3906E-03
            1567            1964     57.1976E-03     61.3906E-03
            1568            1964     57.1976E-03     61.3906E-03
            1550            1964     57.1976E-03     61.3906E-03
            1552            1965     46.7281E-03     50.8685E-03
            1551            1965     46.7281E-03     50.8685E-03
            1568            1965     46.7281E-03     50.8685E-03
            1569            1965     46.7281E-03     50.8685E-03
            1570            1966     36.3097E-03     40.3734E-03
            1552            1966     36.3097E-03     40.3734E-03
            1553            1966     36.3097E-03     40.3734E-03
            1569            1966     36.3097E-03     40.3734E-03
            1554            1967     26.0221E-03     29.9303E-03
            1570            1967     26.0221E-03     29.9303E-03
            1553            1967     26.0221E-03     29.9303E-03
            1571            1967     26.0221E-03     29.9303E-03
            1571            1968     16.3663E-03     19.4897E-03
            1554            1968     16.3663E-03     19.4897E-03
            1572            1968     16.3663E-03     19.4897E-03
            1555            1968     16.3663E-03     19.4897E-03
            1572            1969     10.0757E-03     9.78821E-03
            1556            1969     10.0757E-03     9.78821E-03
            1573            1969     10.0757E-03     9.78821E-03
            1555            1969     10.0757E-03     9.78821E-03
            1574            1970     11.9035E-03     7.43751E-03
            1557            1970     11.9035E-03     7.43751E-03
            1573            1970     11.9035E-03     7.43751E-03
            1556            1970     11.9035E-03     7.43751E-03
            1559            1971     167.420E-03     170.729E-03
            1576            1971     167.420E-03     170.729E-03
            1575            1971     167.420E-03     170.729E-03
            1558            1971     167.420E-03     170.729E-03
            1559            1972     144.879E-03     149.457E-03
            1576            1972     144.879E-03     149.457E-03
            1577            1972     144.879E-03     149.457E-03
            1560            1972     144.879E-03     149.457E-03
            1577            1973     129.838E-03     134.459E-03
            1578            1973     129.838E-03     134.459E-03
            1561            1973     129.838E-03     134.459E-03
            1560            1973     129.838E-03     134.459E-03
            1578            1974     118.027E-03     122.875E-03
            1579            1974     118.027E-03     122.875E-03
            1562            1974     118.027E-03     122.875E-03
            1561            1974     118.027E-03     122.875E-03
            1563            1975     107.123E-03     112.189E-03
            1579            1975     107.123E-03     112.189E-03
            1562            1975     107.123E-03     112.189E-03
            1580            1975     107.123E-03     112.189E-03
            1564            1976     96.7961E-03     101.977E-03
            1581            1976     96.7961E-03     101.977E-03
            1563            1976     96.7961E-03     101.977E-03
            1580            1976     96.7961E-03     101.977E-03
            1581            1977     86.5417E-03     91.8096E-03
            1564            1977     86.5417E-03     91.8096E-03
            1582            1977     86.5417E-03     91.8096E-03
            1565            1977     86.5417E-03     91.8096E-03
            1583            1978     76.3576E-03     81.6429E-03
            1582            1978     76.3576E-03     81.6429E-03
            1565            1978     76.3576E-03     81.6429E-03
            1566            1978     76.3576E-03     81.6429E-03
            1584            1979     66.1126E-03     71.4104E-03
            1583            1979     66.1126E-03     71.4104E-03
            1566            1979     66.1126E-03     71.4104E-03
            1567            1979     66.1126E-03     71.4104E-03
            1584            1980     55.8628E-03     61.1434E-03
            1585            1980     55.8628E-03     61.1434E-03
            1567            1980     55.8628E-03     61.1434E-03
            1568            1980     55.8628E-03     61.1434E-03
            1586            1981     45.5553E-03     50.8104E-03
            1568            1981     45.5553E-03     50.8104E-03
            1585            1981     45.5553E-03     50.8104E-03
            1569            1981     45.5553E-03     50.8104E-03
            1587            1982     35.2692E-03     40.4461E-03
            1569            1982     35.2692E-03     40.4461E-03
            1586            1982     35.2692E-03     40.4461E-03
            1570            1982     35.2692E-03     40.4461E-03
            1587            1983     24.9500E-03     29.9009E-03
            1570            1983     24.9500E-03     29.9009E-03
            1588            1983     24.9500E-03     29.9009E-03
            1571            1983     24.9500E-03     29.9009E-03
            1572            1984     14.7584E-03     19.2111E-03
            1571            1984     14.7584E-03     19.2111E-03
            1588            1984     14.7584E-03     19.2111E-03
            1589            1984     14.7584E-03     19.2111E-03
            1590            1985     7.20618E-03     8.32398E-03
            1589            1985     7.20618E-03     8.32398E-03
            1572            1985     7.20618E-03     8.32398E-03
            1573            1985     7.20618E-03     8.32398E-03
            1591            1986     10.7123E-03     8.19909E-03
            1573            1986     10.7123E-03     8.19909E-03
            1590            1986     10.7123E-03     8.19909E-03
            1574            1986     10.7123E-03     8.19909E-03
            1593            1987     166.451E-03     169.393E-03
            1576            1987     166.451E-03     169.393E-03
            1592            1987     166.451E-03     169.393E-03
            1575            1987     166.451E-03     169.393E-03
            1577            1988     152.519E-03     153.466E-03
            1576            1988     152.519E-03     153.466E-03
            1594            1988     152.519E-03     153.466E-03
            1593            1988     152.519E-03     153.466E-03
            1594            1989     141.761E-03     143.131E-03
            1577            1989     141.761E-03     143.131E-03
            1595            1989     141.761E-03     143.131E-03
            1578            1989     141.761E-03     143.131E-03
            1595            1990     130.950E-03     133.062E-03
            1596            1990     130.950E-03     133.062E-03
            1578            1990     130.950E-03     133.062E-03
            1579            1990     130.950E-03     133.062E-03
            1596            1991     120.450E-03     122.977E-03
            1579            1991     120.450E-03     122.977E-03
            1580            1991     120.450E-03     122.977E-03
            1597            1991     120.450E-03     122.977E-03
            1598            1992     109.737E-03     112.605E-03
            1580            1992     109.737E-03     112.605E-03
            1597            1992     109.737E-03     112.605E-03
            1581            1992     109.737E-03     112.605E-03
            1581            1993     99.0234E-03     102.003E-03
            1598            1993     99.0234E-03     102.003E-03
            1582            1993     99.0234E-03     102.003E-03
            1599            1993     99.0234E-03     102.003E-03
            1599            1994     88.1763E-03     91.2693E-03
            1583            1994     88.1763E-03     91.2693E-03
            1582            1994     88.1763E-03     91.2693E-03
            1600            1994     88.1763E-03     91.2693E-03
            1583            1995     77.3061E-03     80.4039E-03
            1584            1995     77.3061E-03     80.4039E-03
            1601            1995     77.3061E-03     80.4039E-03
            1600            1995     77.3061E-03     80.4039E-03
            1584            1996     66.3816E-03     69.5387E-03
            1601            1996     66.3816E-03     69.5387E-03
            1602            1996     66.3816E-03     69.5387E-03
            1585            1996     66.3816E-03     69.5387E-03
            1585            1997     55.5397E-03     58.6915E-03
            1586            1997     55.5397E-03     58.6915E-03
            1602            1997     55.5397E-03     58.6915E-03
            1603            1997     55.5397E-03     58.6915E-03
            1586            1998     44.8019E-03     47.9596E-03
            1604            1998     44.8019E-03     47.9596E-03
            1587            1998     44.8019E-03     47.9596E-03
            1603            1998     44.8019E-03     47.9596E-03
            1605            1999     34.4195E-03     37.4594E-03
            1604            1999     34.4195E-03     37.4594E-03
            1587            1999     34.4195E-03     37.4594E-03
            1588            1999     34.4195E-03     37.4594E-03
            1605            2000     24.5469E-03     27.3074E-03
            1589            2000     24.5469E-03     27.3074E-03
            1606            2000     24.5469E-03     27.3074E-03
            1588            2000     24.5469E-03     27.3074E-03
            1589            2001     16.2427E-03     18.1532E-03
            1590            2001     16.2427E-03     18.1532E-03
            1606            2001     16.2427E-03     18.1532E-03
            1607            2001     16.2427E-03     18.1532E-03
            1607            2002     15.0059E-03     18.5165E-03
            1590            2002     15.0059E-03     18.5165E-03
            1591            2002     15.0059E-03     18.5165E-03
            1608            2002     15.0059E-03     18.5165E-03
            1610            2003     175.495E-03     175.049E-03
            1593            2003     175.495E-03     175.049E-03
            1592            2003     175.495E-03     175.049E-03
            1609            2003     175.495E-03     175.049E-03
            1610            2004     168.624E-03     168.557E-03
            1593            2004     168.624E-03     168.557E-03
            1594            2004     168.624E-03     168.557E-03
            1611            2004     168.624E-03     168.557E-03
            1612            2005     159.219E-03     159.389E-03
            1595            2005     159.219E-03     159.389E-03
            1594            2005     159.219E-03     159.389E-03
            1611            2005     159.219E-03     159.389E-03
            1596            2006     148.489E-03     148.837E-03
            1612            2006     148.489E-03     148.837E-03
            1595            2006     148.489E-03     148.837E-03
            1613            2006     148.489E-03     148.837E-03
            1613            2007     136.814E-03     137.396E-03
            1596            2007     136.814E-03     137.396E-03
            1597            2007     136.814E-03     137.396E-03
            1614            2007     136.814E-03     137.396E-03
            1597            2008     124.816E-03     125.602E-03
            1615            2008     124.816E-03     125.602E-03
            1614            2008     124.816E-03     125.602E-03
            1598            2008     124.816E-03     125.602E-03
            1598            2009     112.723E-03     113.572E-03
            1616            2009     112.723E-03     113.572E-03
            1615            2009     112.723E-03     113.572E-03
            1599            2009     112.723E-03     113.572E-03
            1600            2010     100.538E-03     101.471E-03
            1616            2010     100.538E-03     101.471E-03
            1599            2010     100.538E-03     101.471E-03
            1617            2010     100.538E-03     101.471E-03
            1600            2011     88.3904E-03     89.3436E-03
            1601            2011     88.3904E-03     89.3436E-03
            1617            2011     88.3904E-03     89.3436E-03
            1618            2011     88.3904E-03     89.3436E-03
            1619            2012     76.2806E-03     77.2723E-03
            1602            2012     76.2806E-03     77.2723E-03
            1618            2012     76.2806E-03     77.2723E-03
            1601            2012     76.2806E-03     77.2723E-03
            1602            2013     64.3532E-03     65.3521E-03
            1619            2013     64.3532E-03     65.3521E-03
            1603            2013     64.3532E-03     65.3521E-03
            1620            2013     64.3532E-03     65.3521E-03
            1620            2014     52.7146E-03     53.7151E-03
            1603            2014     52.7146E-03     53.7151E-03
            1621            2014     52.7146E-03     53.7151E-03
            1604            2014     52.7146E-03     53.7151E-03
            1605            2015     41.6503E-03     42.6463E-03
            1604            2015     41.6503E-03     42.6463E-03
            1621            2015     41.6503E-03     42.6463E-03
            1622            2015     41.6503E-03     42.6463E-03
            1623            2016     31.7505E-03     32.8228E-03
            1622            2016     31.7505E-03     32.8228E-03
            1606            2016     31.7505E-03     32.8228E-03
            1605            2016     31.7505E-03     32.8228E-03
            1623            2017     24.0168E-03     25.7403E-03
            1607            2017     24.0168E-03     25.7403E-03
            1624            2017     24.0168E-03     25.7403E-03
            1606            2017     24.0168E-03     25.7403E-03
            1607            2018     21.1687E-03     24.2253E-03
            1625            2018     21.1687E-03     24.2253E-03
            1608            2018     21.1687E-03     24.2253E-03
            1624            2018     21.1687E-03     24.2253E-03
            1626            2019     186.566E-03     189.086E-03
            1609            2019     186.566E-03     189.086E-03
            1610            2019     186.566E-03     189.086E-03
            1627            2019     186.566E-03     189.086E-03
            1627            2020     176.551E-03     180.191E-03
            1611            2020     176.551E-03     180.191E-03
            1610            2020     176.551E-03     180.191E-03
            1628            2020     176.551E-03     180.191E-03
            1612            2021     164.876E-03     167.766E-03
            1628            2021     164.876E-03     167.766E-03
            1611            2021     164.876E-03     167.766E-03
            1629            2021     164.876E-03     167.766E-03
            1629            2022     151.931E-03     154.342E-03
            1612            2022     151.931E-03     154.342E-03
            1613            2022     151.931E-03     154.342E-03
            1630            2022     151.931E-03     154.342E-03
            1631            2023     138.654E-03     140.905E-03
            1613            2023     138.654E-03     140.905E-03
            1614            2023     138.654E-03     140.905E-03
            1630            2023     138.654E-03     140.905E-03
            1615            2024     125.572E-03     127.710E-03
            1632            2024     125.572E-03     127.710E-03
            1614            2024     125.572E-03     127.710E-03
            1631            2024     125.572E-03     127.710E-03
            1632            2025     112.522E-03     114.653E-03
            1615            2025     112.522E-03     114.653E-03
            1633            2025     112.522E-03     114.653E-03
            1616            2025     112.522E-03     114.653E-03
            1633            2026     99.6061E-03     101.724E-03
            1617            2026     99.6061E-03     101.724E-03
            1616            2026     99.6061E-03     101.724E-03
            1634            2026     99.6061E-03     101.724E-03
            1617            2027     86.7687E-03     88.8935E-03
            1618            2027     86.7687E-03     88.8935E-03
            1634            2027     86.7687E-03     88.8935E-03
            1635            2027     86.7687E-03     88.8935E-03
            1636            2028     74.0559E-03     76.1549E-03
            1619            2028     74.0559E-03     76.1549E-03
            1618            2028     74.0559E-03     76.1549E-03
            1635            2028     74.0559E-03     76.1549E-03
            1619            2029     61.4860E-03     63.5437E-03
            1620            2029     61.4860E-03     63.5437E-03
            1637            2029     61.4860E-03     63.5437E-03
            1636            2029     61.4860E-03     63.5437E-03
            1637            2030     49.1752E-03     51.1666E-03
            1620            2030     49.1752E-03     51.1666E-03
            1638            2030     49.1752E-03     51.1666E-03
            1621            2030     49.1752E-03     51.1666E-03
            1639            2031     37.3145E-03     39.2597E-03
            1622            2031     37.3145E-03     39.2597E-03
            1621            2031     37.3145E-03     39.2597E-03
            1638            2031     37.3145E-03     39.2597E-03
            1622            2032     26.4348E-03     28.5266E-03
            1639            2032     26.4348E-03     28.5266E-03
            1623            2032     26.4348E-03     28.5266E-03
            1640            2032     26.4348E-03     28.5266E-03
            1641            2033     19.1437E-03     20.8821E-03
            1640            2033     19.1437E-03     20.8821E-03
            1623            2033     19.1437E-03     20.8821E-03
            1624            2033     19.1437E-03     20.8821E-03
            1625            2034     19.1571E-03     17.6795E-03
            1624            2034     19.1571E-03     17.6795E-03
            1642            2034     19.1571E-03     17.6795E-03
            1641            2034     19.1571E-03     17.6795E-03
            1626            2035     194.246E-03     199.218E-03
            1644            2035     194.246E-03     199.218E-03
            1643            2035     194.246E-03     199.218E-03
            1627            2035     194.246E-03     199.218E-03
            1645            2036     181.875E-03     186.540E-03
            1644            2036     181.875E-03     186.540E-03
            1628            2036     181.875E-03     186.540E-03
            1627            2036     181.875E-03     186.540E-03
            1629            2037     167.183E-03     171.679E-03
            1628            2037     167.183E-03     171.679E-03
            1646            2037     167.183E-03     171.679E-03
            1645            2037     167.183E-03     171.679E-03
            1646            2038     152.442E-03     156.632E-03
            1630            2038     152.442E-03     156.632E-03
            1629            2038     152.442E-03     156.632E-03
            1647            2038     152.442E-03     156.632E-03
            1630            2039     138.720E-03     142.438E-03
            1648            2039     138.720E-03     142.438E-03
            1647            2039     138.720E-03     142.438E-03
            1631            2039     138.720E-03     142.438E-03
            1631            2040     125.122E-03     128.622E-03
            1648            2040     125.122E-03     128.622E-03
            1649            2040     125.122E-03     128.622E-03
            1632            2040     125.122E-03     128.622E-03
            1632            2041     111.743E-03     115.146E-03
            1649            2041     111.743E-03     115.146E-03
            1633            2041     111.743E-03     115.146E-03
            1650            2041     111.743E-03     115.146E-03
            1650            2042     98.4729E-03     101.839E-03
            1634            2042     98.4729E-03     101.839E-03
            1651            2042     98.4729E-03     101.839E-03
            1633            2042     98.4729E-03     101.839E-03
            1651            2043     85.3113E-03     88.6477E-03
            1652            2043     85.3113E-03     88.6477E-03
            1635            2043     85.3113E-03     88.6477E-03
            1634            2043     85.3113E-03     88.6477E-03
            1636            2044     72.2502E-03     75.5519E-03
            1635            2044     72.2502E-03     75.5519E-03
            1653            2044     72.2502E-03     75.5519E-03
            1652            2044     72.2502E-03     75.5519E-03
            1654            2045     59.3058E-03     62.5431E-03
            1637            2045     59.3058E-03     62.5431E-03
            1636            2045     59.3058E-03     62.5431E-03
            1653            2045     59.3058E-03     62.5431E-03
            1638            2046     46.5147E-03     49.6820E-03
            1655            2046     46.5147E-03     49.6820E-03
            1637            2046     46.5147E-03     49.6820E-03
            1654            2046     46.5147E-03     49.6820E-03
            1639            2047     34.0836E-03     37.1396E-03
            1656            2047     34.0836E-03     37.1396E-03
            1655            2047     34.0836E-03     37.1396E-03
            1638            2047     34.0836E-03     37.1396E-03
            1657            2048     22.5457E-03     25.3532E-03
            1656            2048     22.5457E-03     25.3532E-03
            1640            2048     22.5457E-03     25.3532E-03
            1639            2048     22.5457E-03     25.3532E-03
            1658            2049     15.0169E-03     15.6669E-03
            1641            2049     15.0169E-03     15.6669E-03
            1640            2049     15.0169E-03     15.6669E-03
            1657            2049     15.0169E-03     15.6669E-03
            1641            2050     15.1929E-03     11.8409E-03
            1659            2050     15.1929E-03     11.8409E-03
            1658            2050     15.1929E-03     11.8409E-03
            1642            2050     15.1929E-03     11.8409E-03
            1644            2051     200.725E-03     203.333E-03
            1643            2051     200.725E-03     203.333E-03
            1660            2051     200.725E-03     203.333E-03
            1661            2051     200.725E-03     203.333E-03
            1645            2052     182.379E-03     187.390E-03
            1662            2052     182.379E-03     187.390E-03
            1644            2052     182.379E-03     187.390E-03
            1661            2052     182.379E-03     187.390E-03
            1663            2053     164.809E-03     170.344E-03
            1645            2053     164.809E-03     170.344E-03
            1646            2053     164.809E-03     170.344E-03
            1662            2053     164.809E-03     170.344E-03
            1664            2054     150.418E-03     155.596E-03
            1646            2054     150.418E-03     155.596E-03
            1663            2054     150.418E-03     155.596E-03
            1647            2054     150.418E-03     155.596E-03
            1647            2055     136.742E-03     141.616E-03
            1648            2055     136.742E-03     141.616E-03
            1664            2055     136.742E-03     141.616E-03
            1665            2055     136.742E-03     141.616E-03
            1648            2056     123.384E-03     128.117E-03
            1666            2056     123.384E-03     128.117E-03
            1649            2056     123.384E-03     128.117E-03
            1665            2056     123.384E-03     128.117E-03
            1666            2057     110.154E-03     114.811E-03
            1649            2057     110.154E-03     114.811E-03
            1667            2057     110.154E-03     114.811E-03
            1650            2057     110.154E-03     114.811E-03
            1667            2058     96.9720E-03     101.594E-03
            1668            2058     96.9720E-03     101.594E-03
            1650            2058     96.9720E-03     101.594E-03
            1651            2058     96.9720E-03     101.594E-03
            1668            2059     83.8387E-03     88.4378E-03
            1669            2059     83.8387E-03     88.4378E-03
            1651            2059     83.8387E-03     88.4378E-03
            1652            2059     83.8387E-03     88.4378E-03
            1652            2060     70.7435E-03     75.3005E-03
            1653            2060     70.7435E-03     75.3005E-03
            1670            2060     70.7435E-03     75.3005E-03
            1669            2060     70.7435E-03     75.3005E-03
            1653            2061     57.7014E-03     62.2121E-03
            1671            2061     57.7014E-03     62.2121E-03
            1670            2061     57.7014E-03     62.2121E-03
            1654            2061     57.7014E-03     62.2121E-03
            1672            2062     44.7331E-03     49.1607E-03
            1671            2062     44.7331E-03     49.1607E-03
            1655            2062     44.7331E-03     49.1607E-03
            1654            2062     44.7331E-03     49.1607E-03
            1655            2063     31.8701E-03     36.2080E-03
            1673            2063     31.8701E-03     36.2080E-03
            1672            2063     31.8701E-03     36.2080E-03
            1656            2063     31.8701E-03     36.2080E-03
            1656            2064     19.7767E-03     23.5346E-03
            1657            2064     19.7767E-03     23.5346E-03
            1673            2064     19.7767E-03     23.5346E-03
            1674            2064     19.7767E-03     23.5346E-03
            1657            2065     11.7112E-03     11.6872E-03
            1675            2065     11.7112E-03     11.6872E-03
            1674            2065     11.7112E-03     11.6872E-03
            1658            2065     11.7112E-03     11.6872E-03
            1658            2066     13.8298E-03     8.75706E-03
            1675            2066     13.8298E-03     8.75706E-03
            1676            2066     13.8298E-03     8.75706E-03
            1659            2066     13.8298E-03     8.75706E-03
            1661            2067     199.761E-03     203.583E-03
            1678            2067     199.761E-03     203.583E-03
            1677            2067     199.761E-03     203.583E-03
            1660            2067     199.761E-03     203.583E-03
            1661            2068     176.237E-03     181.507E-03
            1678            2068     176.237E-03     181.507E-03
            1679            2068     176.237E-03     181.507E-03
            1662            2068     176.237E-03     181.507E-03
            1662            2069     159.787E-03     165.302E-03
            1679            2069     159.787E-03     165.302E-03
            1663            2069     159.787E-03     165.302E-03
            1680            2069     159.787E-03     165.302E-03
            1680            2070     146.289E-03     151.940E-03
            1681            2070     146.289E-03     151.940E-03
            1663            2070     146.289E-03     151.940E-03
            1664            2070     146.289E-03     151.940E-03
            1681            2071     133.286E-03     139.115E-03
            1665            2071     133.286E-03     139.115E-03
            1664            2071     133.286E-03     139.115E-03
            1682            2071     133.286E-03     139.115E-03
            1683            2072     120.632E-03     126.529E-03
            1666            2072     120.632E-03     126.529E-03
            1665            2072     120.632E-03     126.529E-03
            1682            2072     120.632E-03     126.529E-03
            1667            2073     107.942E-03     113.846E-03
            1684            2073     107.942E-03     113.846E-03
            1666            2073     107.942E-03     113.846E-03
            1683            2073     107.942E-03     113.846E-03
            1684            2074     95.2206E-03     101.118E-03
            1668            2074     95.2206E-03     101.118E-03
            1667            2074     95.2206E-03     101.118E-03
            1685            2074     95.2206E-03     101.118E-03
            1685            2075     82.4367E-03     88.2922E-03
            1668            2075     82.4367E-03     88.2922E-03
            1669            2075     82.4367E-03     88.2922E-03
            1686            2075     82.4367E-03     88.2922E-03
            1687            2076     69.6059E-03     75.4426E-03
            1669            2076     69.6059E-03     75.4426E-03
            1670            2076     69.6059E-03     75.4426E-03
            1686            2076     69.6059E-03     75.4426E-03
            1670            2077     56.7528E-03     62.5472E-03
            1671            2077     56.7528E-03     62.5472E-03
            1687            2077     56.7528E-03     62.5472E-03
            1688            2077     56.7528E-03     62.5472E-03
            1672            2078     43.9040E-03     49.6493E-03
            1671            2078     43.9040E-03     49.6493E-03
            1689            2078     43.9040E-03     49.6493E-03
            1688            2078     43.9040E-03     49.6493E-03
            1673            2079     31.0690E-03     36.6889E-03
            1672            2079     31.0690E-03     36.6889E-03
            1690            2079     31.0690E-03     36.6889E-03
            1689            2079     31.0690E-03     36.6889E-03
            1690            2080     18.4800E-03     23.5784E-03
            1674            2080     18.4800E-03     23.5784E-03
            1673            2080     18.4800E-03     23.5784E-03
            1691            2080     18.4800E-03     23.5784E-03
            1675            2081     8.87313E-03     10.7345E-03
            1691            2081     8.87313E-03     10.7345E-03
            1674            2081     8.87313E-03     10.7345E-03
            1692            2081     8.87313E-03     10.7345E-03
            1675            2082     12.3099E-03     10.1212E-03
            1692            2082     12.3099E-03     10.1212E-03
            1693            2082     12.3099E-03     10.1212E-03
            1676            2082     12.3099E-03     10.1212E-03
            1695            2083     195.721E-03     201.592E-03
            1694            2083     195.721E-03     201.592E-03
            1678            2083     195.721E-03     201.592E-03
            1677            2083     195.721E-03     201.592E-03
            1678            2084     177.027E-03     181.251E-03
            1679            2084     177.027E-03     181.251E-03
            1696            2084     177.027E-03     181.251E-03
            1695            2084     177.027E-03     181.251E-03
            1697            2085     162.916E-03     167.249E-03
            1680            2085     162.916E-03     167.249E-03
            1679            2085     162.916E-03     167.249E-03
            1696            2085     162.916E-03     167.249E-03
            1697            2086     149.402E-03     154.131E-03
            1681            2086     149.402E-03     154.131E-03
            1680            2086     149.402E-03     154.131E-03
            1698            2086     149.402E-03     154.131E-03
            1681            2087     136.450E-03     141.337E-03
            1682            2087     136.450E-03     141.337E-03
            1698            2087     136.450E-03     141.337E-03
            1699            2087     136.450E-03     141.337E-03
            1699            2088     123.472E-03     128.510E-03
            1700            2088     123.472E-03     128.510E-03
            1683            2088     123.472E-03     128.510E-03
            1682            2088     123.472E-03     128.510E-03
            1700            2089     110.547E-03     115.576E-03
            1701            2089     110.547E-03     115.576E-03
            1683            2089     110.547E-03     115.576E-03
            1684            2089     110.547E-03     115.576E-03
            1702            2090     97.5191E-03     102.571E-03
            1685            2090     97.5191E-03     102.571E-03
            1684            2090     97.5191E-03     102.571E-03
            1701            2090     97.5191E-03     102.571E-03
            1702            2091     84.4695E-03     89.4782E-03
            1685            2091     84.4695E-03     89.4782E-03
            1703            2091     84.4695E-03     89.4782E-03
            1686            2091     84.4695E-03     89.4782E-03
            1704            2092     71.3473E-03     76.3604E-03
            1703            2092     71.3473E-03     76.3604E-03
            1687            2092     71.3473E-03     76.3604E-03
            1686            2092     71.3473E-03     76.3604E-03
            1704            2093     58.2155E-03     63.2025E-03
            1688            2093     58.2155E-03     63.2025E-03
            1687            2093     58.2155E-03     63.2025E-03
            1705            2093     58.2155E-03     63.2025E-03
            1706            2094     45.0564E-03     50.0376E-03
            1688            2094     45.0564E-03     50.0376E-03
            1705            2094     45.0564E-03     50.0376E-03
            1689            2094     45.0564E-03     50.0376E-03
            1689            2095     31.9430E-03     36.8214E-03
            1707            2095     31.9430E-03     36.8214E-03
            1706            2095     31.9430E-03     36.8214E-03
            1690            2095     31.9430E-03     36.8214E-03
            1708            2096     18.8508E-03     23.4952E-03
            1691            2096     18.8508E-03     23.4952E-03
            1707            2096     18.8508E-03     23.4952E-03
            1690            2096     18.8508E-03     23.4952E-03
            1691            2097     7.31701E-03     10.2704E-03
            1709            2097     7.31701E-03     10.2704E-03
            1692            2097     7.31701E-03     10.2704E-03
            1708            2097     7.31701E-03     10.2704E-03
            1692            2098     9.55428E-03     9.81461E-03
            1710            2098     9.55428E-03     9.81461E-03
            1709            2098     9.55428E-03     9.81461E-03
            1693            2098     9.55428E-03     9.81461E-03
            1712            2099     652.232E-06     667.485E-06
            1711            2099     652.232E-06     667.485E-06
            1717            2099     652.232E-06     667.485E-06
            1716            2099     652.232E-06     667.485E-06
            1718            2100     574.692E-06     574.885E-06
            1713            2100     574.692E-06     574.885E-06
            1712            2100     574.692E-06     574.885E-06
            1717            2100     574.692E-06     574.885E-06
            1718            2101     653.630E-06     635.319E-06
            1714            2101     653.630E-06     635.319E-06
            1719            2101     653.630E-06     635.319E-06
            1713            2101     653.630E-06     635.319E-06
            1714            2102     724.167E-06     704.623E-06
            1719            2102     724.167E-06     704.623E-06
            1720            2102     724.167E-06     704.623E-06
            1715            2102     724.167E-06     704.623E-06
            1716            2103     484.208E-06     435.715E-06
            1722            2103     484.208E-06     435.715E-06
            1717            2103     484.208E-06     435.715E-06
            1721            2103     484.208E-06     435.715E-06
            1722            2104     508.007E-06     458.646E-06
            1717            2104     508.007E-06     458.646E-06
            1718            2104     508.007E-06     458.646E-06
            1723            2104     508.007E-06     458.646E-06
            1723            2105     625.743E-06     598.809E-06
            1724            2105     625.743E-06     598.809E-06
            1719            2105     625.743E-06     598.809E-06
            1718            2105     625.743E-06     598.809E-06
            1724            2106     715.305E-06     703.398E-06
            1725            2106     715.305E-06     703.398E-06
            1720            2106     715.305E-06     703.398E-06
            1719            2106     715.305E-06     703.398E-06
            1721            2107     264.395E-06     303.007E-06
            1727            2107     264.395E-06     303.007E-06
            1726            2107     264.395E-06     303.007E-06
            1722            2107     264.395E-06     303.007E-06
            1722            2108     367.746E-06     400.288E-06
            1728            2108     367.746E-06     400.288E-06
            1723            2108     367.746E-06     400.288E-06
            1727            2108     367.746E-06     400.288E-06
            1723            2109     565.941E-06     581.063E-06
            1724            2109     565.941E-06     581.063E-06
            1729            2109     565.941E-06     581.063E-06
            1728            2109     565.941E-06     581.063E-06
            1730            2110     696.955E-06     692.925E-06
            1724            2110     696.955E-06     692.925E-06
            1725            2110     696.955E-06     692.925E-06
            1729            2110     696.955E-06     692.925E-06
            1732            2111     231.179E-06     266.453E-06
            1726            2111     231.179E-06     266.453E-06
            1731            2111     231.179E-06     266.453E-06
            1727            2111     231.179E-06     266.453E-06
            1727            2112     342.608E-06     351.455E-06
            1728            2112     342.608E-06     351.455E-06
            1733            2112     342.608E-06     351.455E-06
            1732            2112     342.608E-06     351.455E-06
            1729            2113     556.372E-06     550.842E-06
            1734            2113     556.372E-06     550.842E-06
            1733            2113     556.372E-06     550.842E-06
            1728            2113     556.372E-06     550.842E-06
            1735            2114     698.943E-06     683.353E-06
            1729            2114     698.943E-06     683.353E-06
            1730            2114     698.943E-06     683.353E-06
            1734            2114     698.943E-06     683.353E-06
            1741            2115     204.306E-03     195.164E-03
            1742            2115     204.306E-03     195.164E-03
            1736            2115     204.306E-03     195.164E-03
            1737            2115     204.306E-03     195.164E-03
            1737            2116     173.599E-03     166.684E-03
            1738            2116     173.599E-03     166.684E-03
            1743            2116     173.599E-03     166.684E-03
            1742            2116     173.599E-03     166.684E-03
            1738            2117     129.766E-03     124.653E-03
            1743            2117     129.766E-03     124.653E-03
            1739            2117     129.766E-03     124.653E-03
            1744            2117     129.766E-03     124.653E-03
            1745            2118     99.1361E-03     98.6608E-03
            1739            2118     99.1361E-03     98.6608E-03
            1740            2118     99.1361E-03     98.6608E-03
            1744            2118     99.1361E-03     98.6608E-03
            1746            2119     201.529E-03     210.063E-03
            1741            2119     201.529E-03     210.063E-03
            1742            2119     201.529E-03     210.063E-03
            1747            2119     201.529E-03     210.063E-03
            1743            2120     174.372E-03     183.521E-03
            1742            2120     174.372E-03     183.521E-03
            1747            2120     174.372E-03     183.521E-03
            1748            2120     174.372E-03     183.521E-03
            1743            2121     137.857E-03     142.961E-03
            1744            2121     137.857E-03     142.961E-03
            1749            2121     137.857E-03     142.961E-03
            1748            2121     137.857E-03     142.961E-03
            1744            2122     103.631E-03     108.017E-03
            1745            2122     103.631E-03     108.017E-03
            1750            2122     103.631E-03     108.017E-03
            1749            2122     103.631E-03     108.017E-03
            1751            2123     219.603E-03     220.111E-03
            1747            2123     219.603E-03     220.111E-03
            1752            2123     219.603E-03     220.111E-03
            1746            2123     219.603E-03     220.111E-03
            1752            2124     193.311E-03     191.471E-03
            1747            2124     193.311E-03     191.471E-03
            1748            2124     193.311E-03     191.471E-03
            1753            2124     193.311E-03     191.471E-03
            1748            2125     157.161E-03     151.804E-03
            1753            2125     157.161E-03     151.804E-03
            1749            2125     157.161E-03     151.804E-03
            1754            2125     157.161E-03     151.804E-03
            1755            2126     116.157E-03     115.678E-03
            1754            2126     116.157E-03     115.678E-03
            1749            2126     116.157E-03     115.678E-03
            1750            2126     116.157E-03     115.678E-03
            1752            2127     239.790E-03     233.001E-03
            1756            2127     239.790E-03     233.001E-03
            1751            2127     239.790E-03     233.001E-03
            1757            2127     239.790E-03     233.001E-03
            1752            2128     207.142E-03     199.653E-03
            1753            2128     207.142E-03     199.653E-03
            1758            2128     207.142E-03     199.653E-03
            1757            2128     207.142E-03     199.653E-03
            1759            2129     164.084E-03     156.598E-03
            1758            2129     164.084E-03     156.598E-03
            1753            2129     164.084E-03     156.598E-03
            1754            2129     164.084E-03     156.598E-03
            1754            2130     118.825E-03     117.238E-03
            1759            2130     118.825E-03     117.238E-03
            1760            2130     118.825E-03     117.238E-03
            1755            2130     118.825E-03     117.238E-03
            1779            2131     250.499E-03     250.629E-03
            1762            2131     250.499E-03     250.629E-03
            1778            2131     250.499E-03     250.629E-03
            1761            2131     250.499E-03     250.629E-03
            1779            2132     233.872E-03     236.685E-03
            1763            2132     233.872E-03     236.685E-03
            1780            2132     233.872E-03     236.685E-03
            1762            2132     233.872E-03     236.685E-03
            1781            2133     217.880E-03     221.623E-03
            1763            2133     217.880E-03     221.623E-03
            1780            2133     217.880E-03     221.623E-03
            1764            2133     217.880E-03     221.623E-03
            1764            2134     202.587E-03     207.459E-03
            1765            2134     202.587E-03     207.459E-03
            1781            2134     202.587E-03     207.459E-03
            1782            2134     202.587E-03     207.459E-03
            1783            2135     188.277E-03     194.149E-03
            1765            2135     188.277E-03     194.149E-03
            1766            2135     188.277E-03     194.149E-03
            1782            2135     188.277E-03     194.149E-03
            1784            2136     174.904E-03     181.684E-03
            1766            2136     174.904E-03     181.684E-03
            1783            2136     174.904E-03     181.684E-03
            1767            2136     174.904E-03     181.684E-03
            1785            2137     162.115E-03     169.796E-03
            1784            2137     162.115E-03     169.796E-03
            1767            2137     162.115E-03     169.796E-03
            1768            2137     162.115E-03     169.796E-03
            1768            2138     150.065E-03     158.523E-03
            1786            2138     150.065E-03     158.523E-03
            1769            2138     150.065E-03     158.523E-03
            1785            2138     150.065E-03     158.523E-03
            1769            2139     138.682E-03     147.795E-03
            1787            2139     138.682E-03     147.795E-03
            1770            2139     138.682E-03     147.795E-03
            1786            2139     138.682E-03     147.795E-03
            1771            2140     128.158E-03     137.729E-03
            1787            2140     128.158E-03     137.729E-03
            1770            2140     128.158E-03     137.729E-03
            1788            2140     128.158E-03     137.729E-03
            1771            2141     118.610E-03     128.413E-03
            1789            2141     118.610E-03     128.413E-03
            1772            2141     118.610E-03     128.413E-03
            1788            2141     118.610E-03     128.413E-03
            1789            2142     110.186E-03     119.866E-03
            1790            2142     110.186E-03     119.866E-03
            1773            2142     110.186E-03     119.866E-03
            1772            2142     110.186E-03     119.866E-03
            1774            2143     103.079E-03     112.123E-03
            1773            2143     103.079E-03     112.123E-03
            1790            2143     103.079E-03     112.123E-03
            1791            2143     103.079E-03     112.123E-03
            1791            2144     95.9842E-03     103.402E-03
            1774            2144     95.9842E-03     103.402E-03
            1792            2144     95.9842E-03     103.402E-03
            1775            2144     95.9842E-03     103.402E-03
            1776            2145     89.3638E-03     93.3014E-03
            1775            2145     89.3638E-03     93.3014E-03
            1792            2145     89.3638E-03     93.3014E-03
            1793            2145     89.3638E-03     93.3014E-03
            1776            2146     79.9721E-03     77.5150E-03
            1794            2146     79.9721E-03     77.5150E-03
            1793            2146     79.9721E-03     77.5150E-03
            1777            2146     79.9721E-03     77.5150E-03
            1796            2147     252.440E-03     256.939E-03
            1779            2147     252.440E-03     256.939E-03
            1795            2147     252.440E-03     256.939E-03
            1778            2147     252.440E-03     256.939E-03
            1796            2148     235.763E-03     240.812E-03
            1779            2148     235.763E-03     240.812E-03
            1780            2148     235.763E-03     240.812E-03
            1797            2148     235.763E-03     240.812E-03
            1798            2149     219.146E-03     224.648E-03
            1781            2149     219.146E-03     224.648E-03
            1780            2149     219.146E-03     224.648E-03
            1797            2149     219.146E-03     224.648E-03
            1799            2150     204.766E-03     210.326E-03
            1781            2150     204.766E-03     210.326E-03
            1782            2150     204.766E-03     210.326E-03
            1798            2150     204.766E-03     210.326E-03
            1782            2151     191.818E-03     197.246E-03
            1799            2151     191.818E-03     197.246E-03
            1783            2151     191.818E-03     197.246E-03
            1800            2151     191.818E-03     197.246E-03
            1784            2152     179.256E-03     185.013E-03
            1801            2152     179.256E-03     185.013E-03
            1783            2152     179.256E-03     185.013E-03
            1800            2152     179.256E-03     185.013E-03
            1784            2153     167.391E-03     173.384E-03
            1802            2153     167.391E-03     173.384E-03
            1785            2153     167.391E-03     173.384E-03
            1801            2153     167.391E-03     173.384E-03
            1803            2154     156.054E-03     162.319E-03
            1785            2154     156.054E-03     162.319E-03
            1802            2154     156.054E-03     162.319E-03
            1786            2154     156.054E-03     162.319E-03
            1786            2155     145.416E-03     151.872E-03
            1803            2155     145.416E-03     151.872E-03
            1804            2155     145.416E-03     151.872E-03
            1787            2155     145.416E-03     151.872E-03
            1788            2156     135.547E-03     142.112E-03
            1804            2156     135.547E-03     142.112E-03
            1805            2156     135.547E-03     142.112E-03
            1787            2156     135.547E-03     142.112E-03
            1788            2157     126.657E-03     133.220E-03
            1805            2157     126.657E-03     133.220E-03
            1789            2157     126.657E-03     133.220E-03
            1806            2157     126.657E-03     133.220E-03
            1789            2158     119.113E-03     125.461E-03
            1790            2158     119.113E-03     125.461E-03
            1806            2158     119.113E-03     125.461E-03
            1807            2158     119.113E-03     125.461E-03
            1791            2159     112.751E-03     118.801E-03
            1807            2159     112.751E-03     118.801E-03
            1808            2159     112.751E-03     118.801E-03
            1790            2159     112.751E-03     118.801E-03
            1792            2160     107.769E-03     113.423E-03
            1808            2160     107.769E-03     113.423E-03
            1809            2160     107.769E-03     113.423E-03
            1791            2160     107.769E-03     113.423E-03
            1793            2161     100.140E-03     102.885E-03
            1792            2161     100.140E-03     102.885E-03
            1810            2161     100.140E-03     102.885E-03
            1809            2161     100.140E-03     102.885E-03
            1794            2162     81.3750E-03     78.0336E-03
            1793            2162     81.3750E-03     78.0336E-03
            1811            2162     81.3750E-03     78.0336E-03
            1810            2162     81.3750E-03     78.0336E-03
            1813            2163     248.575E-03     253.021E-03
            1812            2163     248.575E-03     253.021E-03
            1795            2163     248.575E-03     253.021E-03
            1796            2163     248.575E-03     253.021E-03
            1813            2164     230.405E-03     236.789E-03
            1797            2164     230.405E-03     236.789E-03
            1814            2164     230.405E-03     236.789E-03
            1796            2164     230.405E-03     236.789E-03
            1815            2165     215.939E-03     221.744E-03
            1798            2165     215.939E-03     221.744E-03
            1814            2165     215.939E-03     221.744E-03
            1797            2165     215.939E-03     221.744E-03
            1816            2166     204.549E-03     209.409E-03
            1798            2166     204.549E-03     209.409E-03
            1799            2166     204.549E-03     209.409E-03
            1815            2166     204.549E-03     209.409E-03
            1800            2167     193.423E-03     197.905E-03
            1817            2167     193.423E-03     197.905E-03
            1816            2167     193.423E-03     197.905E-03
            1799            2167     193.423E-03     197.905E-03
            1800            2168     182.631E-03     186.750E-03
            1818            2168     182.631E-03     186.750E-03
            1817            2168     182.631E-03     186.750E-03
            1801            2168     182.631E-03     186.750E-03
            1818            2169     172.066E-03     175.918E-03
            1802            2169     172.066E-03     175.918E-03
            1819            2169     172.066E-03     175.918E-03
            1801            2169     172.066E-03     175.918E-03
            1819            2170     161.878E-03     165.464E-03
            1803            2170     161.878E-03     165.464E-03
            1820            2170     161.878E-03     165.464E-03
            1802            2170     161.878E-03     165.464E-03
            1803            2171     152.163E-03     155.506E-03
            1821            2171     152.163E-03     155.506E-03
            1804            2171     152.163E-03     155.506E-03
            1820            2171     152.163E-03     155.506E-03
            1821            2172     143.075E-03     146.197E-03
            1804            2172     143.075E-03     146.197E-03
            1805            2172     143.075E-03     146.197E-03
            1822            2172     143.075E-03     146.197E-03
            1806            2173     134.813E-03     137.705E-03
            1805            2173     134.813E-03     137.705E-03
            1822            2173     134.813E-03     137.705E-03
            1823            2173     134.813E-03     137.705E-03
            1824            2174     127.593E-03     130.336E-03
            1806            2174     127.593E-03     130.336E-03
            1823            2174     127.593E-03     130.336E-03
            1807            2174     127.593E-03     130.336E-03
            1808            2175     121.554E-03     124.184E-03
            1807            2175     121.554E-03     124.184E-03
            1825            2175     121.554E-03     124.184E-03
            1824            2175     121.554E-03     124.184E-03
            1808            2176     116.304E-03     119.350E-03
            1825            2176     116.304E-03     119.350E-03
            1809            2176     116.304E-03     119.350E-03
            1826            2176     116.304E-03     119.350E-03
            1810            2177     108.199E-03     111.219E-03
            1809            2177     108.199E-03     111.219E-03
            1827            2177     108.199E-03     111.219E-03
            1826            2177     108.199E-03     111.219E-03
            1827            2178     88.8884E-03     89.2738E-03
            1811            2178     88.8884E-03     89.2738E-03
            1828            2178     88.8884E-03     89.2738E-03
            1810            2178     88.8884E-03     89.2738E-03
            1812            2179     237.682E-03     244.175E-03
            1830            2179     237.682E-03     244.175E-03
            1829            2179     237.682E-03     244.175E-03
            1813            2179     237.682E-03     244.175E-03
            1813            2180     220.424E-03     226.561E-03
            1830            2180     220.424E-03     226.561E-03
            1831            2180     220.424E-03     226.561E-03
            1814            2180     220.424E-03     226.561E-03
            1815            2181     211.591E-03     216.002E-03
            1831            2181     211.591E-03     216.002E-03
            1832            2181     211.591E-03     216.002E-03
            1814            2181     211.591E-03     216.002E-03
            1815            2182     203.199E-03     206.790E-03
            1816            2182     203.199E-03     206.790E-03
            1832            2182     203.199E-03     206.790E-03
            1833            2182     203.199E-03     206.790E-03
            1834            2183     194.544E-03     197.421E-03
            1833            2183     194.544E-03     197.421E-03
            1816            2183     194.544E-03     197.421E-03
            1817            2183     194.544E-03     197.421E-03
            1834            2184     185.778E-03     187.740E-03
            1818            2184     185.778E-03     187.740E-03
            1817            2184     185.778E-03     187.740E-03
            1835            2184     185.778E-03     187.740E-03
            1819            2185     176.812E-03     177.957E-03
            1818            2185     176.812E-03     177.957E-03
            1835            2185     176.812E-03     177.957E-03
            1836            2185     176.812E-03     177.957E-03
            1836            2186     167.928E-03     168.289E-03
            1820            2186     167.928E-03     168.289E-03
            1837            2186     167.928E-03     168.289E-03
            1819            2186     167.928E-03     168.289E-03
            1838            2187     159.254E-03     158.946E-03
            1821            2187     159.254E-03     158.946E-03
            1820            2187     159.254E-03     158.946E-03
            1837            2187     159.254E-03     158.946E-03
            1838            2188     150.983E-03     150.145E-03
            1822            2188     150.983E-03     150.145E-03
            1839            2188     150.983E-03     150.145E-03
            1821            2188     150.983E-03     150.145E-03
            1839            2189     143.258E-03     142.055E-03
            1822            2189     143.258E-03     142.055E-03
            1840            2189     143.258E-03     142.055E-03
            1823            2189     143.258E-03     142.055E-03
            1824            2190     136.098E-03     134.760E-03
            1841            2190     136.098E-03     134.760E-03
            1840            2190     136.098E-03     134.760E-03
            1823            2190     136.098E-03     134.760E-03
            1824            2191     129.755E-03     128.515E-03
            1825            2191     129.755E-03     128.515E-03
            1841            2191     129.755E-03     128.515E-03
            1842            2191     129.755E-03     128.515E-03
            1825            2192     122.793E-03     122.014E-03
            1843            2192     122.793E-03     122.014E-03
            1826            2192     122.793E-03     122.014E-03
            1842            2192     122.793E-03     122.014E-03
            1844            2193     115.531E-03     116.465E-03
            1826            2193     115.531E-03     116.465E-03
            1827            2193     115.531E-03     116.465E-03
            1843            2193     115.531E-03     116.465E-03
            1844            2194     101.986E-03     105.161E-03
            1827            2194     101.986E-03     105.161E-03
            1845            2194     101.986E-03     105.161E-03
            1828            2194     101.986E-03     105.161E-03
            1864            2195     14.6843E-03     14.4755E-03
            1863            2195     14.6843E-03     14.4755E-03
            1846            2195     14.6843E-03     14.4755E-03
            1847            2195     14.6843E-03     14.4755E-03
            1848            2196     18.2931E-03     24.0119E-03
            1865            2196     18.2931E-03     24.0119E-03
            1847            2196     18.2931E-03     24.0119E-03
            1864            2196     18.2931E-03     24.0119E-03
            1866            2197     28.1685E-03     36.3194E-03
            1849            2197     28.1685E-03     36.3194E-03
            1848            2197     28.1685E-03     36.3194E-03
            1865            2197     28.1685E-03     36.3194E-03
            1867            2198     39.7955E-03     48.8627E-03
            1850            2198     39.7955E-03     48.8627E-03
            1849            2198     39.7955E-03     48.8627E-03
            1866            2198     39.7955E-03     48.8627E-03
            1868            2199     52.2402E-03     61.5823E-03
            1850            2199     52.2402E-03     61.5823E-03
            1851            2199     52.2402E-03     61.5823E-03
            1867            2199     52.2402E-03     61.5823E-03
            1868            2200     65.0125E-03     74.5313E-03
            1852            2200     65.0125E-03     74.5313E-03
            1851            2200     65.0125E-03     74.5313E-03
            1869            2200     65.0125E-03     74.5313E-03
            1852            2201     77.9110E-03     87.5764E-03
            1853            2201     77.9110E-03     87.5764E-03
            1870            2201     77.9110E-03     87.5764E-03
            1869            2201     77.9110E-03     87.5764E-03
            1870            2202     90.9401E-03     100.665E-03
            1854            2202     90.9401E-03     100.665E-03
            1853            2202     90.9401E-03     100.665E-03
            1871            2202     90.9401E-03     100.665E-03
            1871            2203     103.967E-03     113.795E-03
            1872            2203     103.967E-03     113.795E-03
            1855            2203     103.967E-03     113.795E-03
            1854            2203     103.967E-03     113.795E-03
            1855            2204     117.077E-03     126.918E-03
            1872            2204     117.077E-03     126.918E-03
            1873            2204     117.077E-03     126.918E-03
            1856            2204     117.077E-03     126.918E-03
            1857            2205     130.107E-03     140.043E-03
            1856            2205     130.107E-03     140.043E-03
            1873            2205     130.107E-03     140.043E-03
            1874            2205     130.107E-03     140.043E-03
            1857            2206     143.197E-03     153.095E-03
            1875            2206     143.197E-03     153.095E-03
            1858            2206     143.197E-03     153.095E-03
            1874            2206     143.197E-03     153.095E-03
            1876            2207     156.024E-03     166.015E-03
            1875            2207     156.024E-03     166.015E-03
            1859            2207     156.024E-03     166.015E-03
            1858            2207     156.024E-03     166.015E-03
            1859            2208     169.197E-03     178.926E-03
            1877            2208     169.197E-03     178.926E-03
            1876            2208     169.197E-03     178.926E-03
            1860            2208     169.197E-03     178.926E-03
            1861            2209     183.158E-03     192.800E-03
            1878            2209     183.158E-03     192.800E-03
            1877            2209     183.158E-03     192.800E-03
            1860            2209     183.158E-03     192.800E-03
            1879            2210     206.230E-03     217.802E-03
            1861            2210     206.230E-03     217.802E-03
            1862            2210     206.230E-03     217.802E-03
            1878            2210     206.230E-03     217.802E-03
            1864            2211     24.2733E-03     22.2261E-03
            1881            2211     24.2733E-03     22.2261E-03
            1863            2211     24.2733E-03     22.2261E-03
            1880            2211     24.2733E-03     22.2261E-03
            1864            2212     25.8259E-03     31.1098E-03
            1882            2212     25.8259E-03     31.1098E-03
            1865            2212     25.8259E-03     31.1098E-03
            1881            2212     25.8259E-03     31.1098E-03
            1865            2213     31.4567E-03     40.2304E-03
            1882            2213     31.4567E-03     40.2304E-03
            1866            2213     31.4567E-03     40.2304E-03
            1883            2213     31.4567E-03     40.2304E-03
            1883            2214     40.4145E-03     50.5146E-03
            1866            2214     40.4145E-03     50.5146E-03
            1867            2214     40.4145E-03     50.5146E-03
            1884            2214     40.4145E-03     50.5146E-03
            1885            2215     50.8942E-03     61.6408E-03
            1867            2215     50.8942E-03     61.6408E-03
            1868            2215     50.8942E-03     61.6408E-03
            1884            2215     50.8942E-03     61.6408E-03
            1885            2216     62.1210E-03     73.1586E-03
            1868            2216     62.1210E-03     73.1586E-03
            1869            2216     62.1210E-03     73.1586E-03
            1886            2216     62.1210E-03     73.1586E-03
            1869            2217     73.7059E-03     84.9790E-03
            1870            2217     73.7059E-03     84.9790E-03
            1886            2217     73.7059E-03     84.9790E-03
            1887            2217     73.7059E-03     84.9790E-03
            1870            2218     85.5071E-03     96.9054E-03
            1871            2218     85.5071E-03     96.9054E-03
            1887            2218     85.5071E-03     96.9054E-03
            1888            2218     85.5071E-03     96.9054E-03
            1888            2219     97.4454E-03     108.983E-03
            1872            2219     97.4454E-03     108.983E-03
            1889            2219     97.4454E-03     108.983E-03
            1871            2219     97.4454E-03     108.983E-03
            1873            2220     109.461E-03     121.053E-03
            1890            2220     109.461E-03     121.053E-03
            1872            2220     109.461E-03     121.053E-03
            1889            2220     109.461E-03     121.053E-03
            1891            2221     121.582E-03     133.266E-03
            1873            2221     121.582E-03     133.266E-03
            1874            2221     121.582E-03     133.266E-03
            1890            2221     121.582E-03     133.266E-03
            1874            2222     133.609E-03     145.359E-03
            1892            2222     133.609E-03     145.359E-03
            1875            2222     133.609E-03     145.359E-03
            1891            2222     133.609E-03     145.359E-03
            1875            2223     145.876E-03     157.555E-03
            1892            2223     145.876E-03     157.555E-03
            1876            2223     145.876E-03     157.555E-03
            1893            2223     145.876E-03     157.555E-03
            1893            2224     157.735E-03     169.649E-03
            1877            2224     157.735E-03     169.649E-03
            1894            2224     157.735E-03     169.649E-03
            1876            2224     157.735E-03     169.649E-03
            1877            2225     172.584E-03     184.632E-03
            1878            2225     172.584E-03     184.632E-03
            1894            2225     172.584E-03     184.632E-03
            1895            2225     172.584E-03     184.632E-03
            1895            2226     201.074E-03     210.600E-03
            1879            2226     201.074E-03     210.600E-03
            1878            2226     201.074E-03     210.600E-03
            1896            2226     201.074E-03     210.600E-03
            1881            2227     29.4119E-03     27.1806E-03
            1897            2227     29.4119E-03     27.1806E-03
            1880            2227     29.4119E-03     27.1806E-03
            1898            2227     29.4119E-03     27.1806E-03
            1899            2228     32.7363E-03     34.2942E-03
            1882            2228     32.7363E-03     34.2942E-03
            1898            2228     32.7363E-03     34.2942E-03
            1881            2228     32.7363E-03     34.2942E-03
            1899            2229     39.1280E-03     41.4757E-03
            1900            2229     39.1280E-03     41.4757E-03
            1882            2229     39.1280E-03     41.4757E-03
            1883            2229     39.1280E-03     41.4757E-03
            1900            2230     47.8711E-03     50.5148E-03
            1884            2230     47.8711E-03     50.5148E-03
            1901            2230     47.8711E-03     50.5148E-03
            1883            2230     47.8711E-03     50.5148E-03
            1902            2231     57.9185E-03     60.9295E-03
            1884            2231     57.9185E-03     60.9295E-03
            1901            2231     57.9185E-03     60.9295E-03
            1885            2231     57.9185E-03     60.9295E-03
            1885            2232     68.7764E-03     71.9280E-03
            1903            2232     68.7764E-03     71.9280E-03
            1902            2232     68.7764E-03     71.9280E-03
            1886            2232     68.7764E-03     71.9280E-03
            1886            2233     80.0865E-03     83.2935E-03
            1887            2233     80.0865E-03     83.2935E-03
            1903            2233     80.0865E-03     83.2935E-03
            1904            2233     80.0865E-03     83.2935E-03
            1887            2234     91.6477E-03     94.9186E-03
            1905            2234     91.6477E-03     94.9186E-03
            1888            2234     91.6477E-03     94.9186E-03
            1904            2234     91.6477E-03     94.9186E-03
            1906            2235     103.407E-03     106.684E-03
            1905            2235     103.407E-03     106.684E-03
            1889            2235     103.407E-03     106.684E-03
            1888            2235     103.407E-03     106.684E-03
            1890            2236     115.291E-03     118.614E-03
            1907            2236     115.291E-03     118.614E-03
            1906            2236     115.291E-03     118.614E-03
            1889            2236     115.291E-03     118.614E-03
            1891            2237     127.305E-03     130.603E-03
            1890            2237     127.305E-03     130.603E-03
            1908            2237     127.305E-03     130.603E-03
            1907            2237     127.305E-03     130.603E-03
            1908            2238     139.479E-03     142.805E-03
            1891            2238     139.479E-03     142.805E-03
            1909            2238     139.479E-03     142.805E-03
            1892            2238     139.479E-03     142.805E-03
            1910            2239     151.826E-03     155.251E-03
            1893            2239     151.826E-03     155.251E-03
            1909            2239     151.826E-03     155.251E-03
            1892            2239     151.826E-03     155.251E-03
            1893            2240     164.482E-03     168.050E-03
            1911            2240     164.482E-03     168.050E-03
            1910            2240     164.482E-03     168.050E-03
            1894            2240     164.482E-03     168.050E-03
            1911            2241     178.316E-03     182.073E-03
            1912            2241     178.316E-03     182.073E-03
            1895            2241     178.316E-03     182.073E-03
            1894            2241     178.316E-03     182.073E-03
            1912            2242     190.845E-03     192.743E-03
            1913            2242     190.845E-03     192.743E-03
            1896            2242     190.845E-03     192.743E-03
            1895            2242     190.845E-03     192.743E-03
            1897            2243     33.3614E-03     34.3382E-03
            1915            2243     33.3614E-03     34.3382E-03
            1898            2243     33.3614E-03     34.3382E-03
            1914            2243     33.3614E-03     34.3382E-03
            1898            2244     39.1686E-03     37.8643E-03
            1916            2244     39.1686E-03     37.8643E-03
            1915            2244     39.1686E-03     37.8643E-03
            1899            2244     39.1686E-03     37.8643E-03
            1916            2245     46.6610E-03     43.9642E-03
            1900            2245     46.6610E-03     43.9642E-03
            1917            2245     46.6610E-03     43.9642E-03
            1899            2245     46.6610E-03     43.9642E-03
            1917            2246     55.4846E-03     52.0945E-03
            1901            2246     55.4846E-03     52.0945E-03
            1918            2246     55.4846E-03     52.0945E-03
            1900            2246     55.4846E-03     52.0945E-03
            1901            2247     65.2856E-03     61.4454E-03
            1918            2247     65.2856E-03     61.4454E-03
            1902            2247     65.2856E-03     61.4454E-03
            1919            2247     65.2856E-03     61.4454E-03
            1920            2248     75.8105E-03     71.6916E-03
            1902            2248     75.8105E-03     71.6916E-03
            1903            2248     75.8105E-03     71.6916E-03
            1919            2248     75.8105E-03     71.6916E-03
            1921            2249     86.7522E-03     82.4202E-03
            1920            2249     86.7522E-03     82.4202E-03
            1904            2249     86.7522E-03     82.4202E-03
            1903            2249     86.7522E-03     82.4202E-03
            1904            2250     98.0098E-03     93.4951E-03
            1905            2250     98.0098E-03     93.4951E-03
            1921            2250     98.0098E-03     93.4951E-03
            1922            2250     98.0098E-03     93.4951E-03
            1923            2251     109.407E-03     104.780E-03
            1906            2251     109.407E-03     104.780E-03
            1905            2251     109.407E-03     104.780E-03
            1922            2251     109.407E-03     104.780E-03
            1906            2252     120.951E-03     116.187E-03
            1907            2252     120.951E-03     116.187E-03
            1923            2252     120.951E-03     116.187E-03
            1924            2252     120.951E-03     116.187E-03
            1907            2253     132.460E-03     127.641E-03
            1924            2253     132.460E-03     127.641E-03
            1925            2253     132.460E-03     127.641E-03
            1908            2253     132.460E-03     127.641E-03
            1926            2254     144.122E-03     139.122E-03
            1925            2254     144.122E-03     139.122E-03
            1909            2254     144.122E-03     139.122E-03
            1908            2254     144.122E-03     139.122E-03
            1909            2255     155.559E-03     150.622E-03
            1926            2255     155.559E-03     150.622E-03
            1927            2255     155.559E-03     150.622E-03
            1910            2255     155.559E-03     150.622E-03
            1927            2256     167.269E-03     161.976E-03
            1911            2256     167.269E-03     161.976E-03
            1910            2256     167.269E-03     161.976E-03
            1928            2256     167.269E-03     161.976E-03
            1928            2257     175.647E-03     170.187E-03
            1929            2257     175.647E-03     170.187E-03
            1912            2257     175.647E-03     170.187E-03
            1911            2257     175.647E-03     170.187E-03
            1913            2258     170.807E-03     167.591E-03
            1929            2258     170.807E-03     167.591E-03
            1930            2258     170.807E-03     167.591E-03
            1912            2258     170.807E-03     167.591E-03
            1937            2259     113.493E-03     114.690E-03
            1931            2259     113.493E-03     114.690E-03
            1932            2259     113.493E-03     114.690E-03
            1936            2259     113.493E-03     114.690E-03
            1932            2260     143.103E-03     151.554E-03
            1937            2260     143.103E-03     151.554E-03
            1933            2260     143.103E-03     151.554E-03
            1938            2260     143.103E-03     151.554E-03
            1933            2261     171.179E-03     190.684E-03
            1938            2261     171.179E-03     190.684E-03
            1934            2261     171.179E-03     190.684E-03
            1939            2261     171.179E-03     190.684E-03
            1940            2262     201.155E-03     225.214E-03
            1935            2262     201.155E-03     225.214E-03
            1934            2262     201.155E-03     225.214E-03
            1939            2262     201.155E-03     225.214E-03
            1941            2263     135.960E-03     132.744E-03
            1936            2263     135.960E-03     132.744E-03
            1942            2263     135.960E-03     132.744E-03
            1937            2263     135.960E-03     132.744E-03
            1938            2264     160.755E-03     156.490E-03
            1937            2264     160.755E-03     156.490E-03
            1942            2264     160.755E-03     156.490E-03
            1943            2264     160.755E-03     156.490E-03
            1939            2265     184.136E-03     183.630E-03
            1944            2265     184.136E-03     183.630E-03
            1938            2265     184.136E-03     183.630E-03
            1943            2265     184.136E-03     183.630E-03
            1945            2266     210.197E-03     212.830E-03
            1939            2266     210.197E-03     212.830E-03
            1944            2266     210.197E-03     212.830E-03
            1940            2266     210.197E-03     212.830E-03
            1946            2267     135.475E-03     133.405E-03
            1942            2267     135.475E-03     133.405E-03
            1947            2267     135.475E-03     133.405E-03
            1941            2267     135.475E-03     133.405E-03
            1947            2268     159.502E-03     150.794E-03
            1943            2268     159.502E-03     150.794E-03
            1948            2268     159.502E-03     150.794E-03
            1942            2268     159.502E-03     150.794E-03
            1943            2269     181.565E-03     169.429E-03
            1944            2269     181.565E-03     169.429E-03
            1949            2269     181.565E-03     169.429E-03
            1948            2269     181.565E-03     169.429E-03
            1949            2270     192.832E-03     179.573E-03
            1944            2270     192.832E-03     179.573E-03
            1950            2270     192.832E-03     179.573E-03
            1945            2270     192.832E-03     179.573E-03
            1951            2271     128.339E-03     130.589E-03
            1947            2271     128.339E-03     130.589E-03
            1952            2271     128.339E-03     130.589E-03
            1946            2271     128.339E-03     130.589E-03
            1952            2272     139.183E-03     143.875E-03
            1953            2272     139.183E-03     143.875E-03
            1947            2272     139.183E-03     143.875E-03
            1948            2272     139.183E-03     143.875E-03
            1949            2273     152.065E-03     161.168E-03
            1953            2273     152.065E-03     161.168E-03
            1948            2273     152.065E-03     161.168E-03
            1954            2273     152.065E-03     161.168E-03
            1950            2274     154.610E-03     160.587E-03
            1949            2274     154.610E-03     160.587E-03
            1954            2274     154.610E-03     160.587E-03
            1955            2274     154.610E-03     160.587E-03
            1956            2275     19.9005E-03     23.2413E-03
            1962            2275     19.9005E-03     23.2413E-03
            1961            2275     19.9005E-03     23.2413E-03
            1957            2275     19.9005E-03     23.2413E-03
            1962            2276     34.7790E-03     34.7324E-03
            1957            2276     34.7790E-03     34.7324E-03
            1963            2276     34.7790E-03     34.7324E-03
            1958            2276     34.7790E-03     34.7324E-03
            1963            2277     43.4080E-03     43.1332E-03
            1964            2277     43.4080E-03     43.1332E-03
            1958            2277     43.4080E-03     43.1332E-03
            1959            2277     43.4080E-03     43.1332E-03
            1964            2278     49.2698E-03     48.6728E-03
            1960            2278     49.2698E-03     48.6728E-03
            1959            2278     49.2698E-03     48.6728E-03
            1965            2278     49.2698E-03     48.6728E-03
            1966            2279     21.9366E-03     24.0620E-03
            1967            2279     21.9366E-03     24.0620E-03
            1961            2279     21.9366E-03     24.0620E-03
            1962            2279     21.9366E-03     24.0620E-03
            1968            2280     34.2071E-03     34.5661E-03
            1963            2280     34.2071E-03     34.5661E-03
            1967            2280     34.2071E-03     34.5661E-03
            1962            2280     34.2071E-03     34.5661E-03
            1969            2281     42.8680E-03     43.0010E-03
            1964            2281     42.8680E-03     43.0010E-03
            1963            2281     42.8680E-03     43.0010E-03
            1968            2281     42.8680E-03     43.0010E-03
            1969            2282     49.2617E-03     48.7476E-03
            1970            2282     49.2617E-03     48.7476E-03
            1965            2282     49.2617E-03     48.7476E-03
            1964            2282     49.2617E-03     48.7476E-03
            1966            2283     21.2148E-03     22.5827E-03
            1971            2283     21.2148E-03     22.5827E-03
            1967            2283     21.2148E-03     22.5827E-03
            1972            2283     21.2148E-03     22.5827E-03
            1972            2284     34.3163E-03     35.4699E-03
            1967            2284     34.3163E-03     35.4699E-03
            1968            2284     34.3163E-03     35.4699E-03
            1973            2284     34.3163E-03     35.4699E-03
            1973            2285     43.5521E-03     44.1147E-03
            1969            2285     43.5521E-03     44.1147E-03
            1968            2285     43.5521E-03     44.1147E-03
            1974            2285     43.5521E-03     44.1147E-03
            1969            2286     50.0792E-03     49.6738E-03
            1975            2286     50.0792E-03     49.6738E-03
            1974            2286     50.0792E-03     49.6738E-03
            1970            2286     50.0792E-03     49.6738E-03
            1972            2287     25.8312E-03     24.4544E-03
            1976            2287     25.8312E-03     24.4544E-03
            1977            2287     25.8312E-03     24.4544E-03
            1971            2287     25.8312E-03     24.4544E-03
            1972            2288     36.8391E-03     36.6158E-03
            1978            2288     36.8391E-03     36.6158E-03
            1973            2288     36.8391E-03     36.6158E-03
            1977            2288     36.8391E-03     36.6158E-03
            1973            2289     45.3389E-03     45.5135E-03
            1979            2289     45.3389E-03     45.5135E-03
            1978            2289     45.3389E-03     45.5135E-03
            1974            2289     45.3389E-03     45.5135E-03
            1979            2290     50.5625E-03     50.1645E-03
            1980            2290     50.5625E-03     50.1645E-03
            1975            2290     50.5625E-03     50.1645E-03
            1974            2290     50.5625E-03     50.1645E-03
            1981            2291     32.6749E-03     34.9052E-03
            1982            2291     32.6749E-03     34.9052E-03
            1976            2291     32.6749E-03     34.9052E-03
            1977            2291     32.6749E-03     34.9052E-03
            1978            2292     39.4534E-03     41.6873E-03
            1983            2292     39.4534E-03     41.6873E-03
            1977            2292     39.4534E-03     41.6873E-03
            1982            2292     39.4534E-03     41.6873E-03
            1983            2293     46.5757E-03     47.8684E-03
            1984            2293     46.5757E-03     47.8684E-03
            1978            2293     46.5757E-03     47.8684E-03
            1979            2293     46.5757E-03     47.8684E-03
            1985            2294     50.4944E-03     50.9476E-03
            1984            2294     50.4944E-03     50.9476E-03
            1980            2294     50.4944E-03     50.9476E-03
            1979            2294     50.4944E-03     50.9476E-03
            1981            2295     46.6653E-03     44.9418E-03
            1982            2295     46.6653E-03     44.9418E-03
            1987            2295     46.6653E-03     44.9418E-03
            1986            2295     46.6653E-03     44.9418E-03
            1987            2296     48.6200E-03     46.4867E-03
            1983            2296     48.6200E-03     46.4867E-03
            1988            2296     48.6200E-03     46.4867E-03
            1982            2296     48.6200E-03     46.4867E-03
            1988            2297     51.2088E-03     49.4707E-03
            1984            2297     51.2088E-03     49.4707E-03
            1983            2297     51.2088E-03     49.4707E-03
            1989            2297     51.2088E-03     49.4707E-03
            1989            2298     52.1211E-03     51.8129E-03
            1984            2298     52.1211E-03     51.8129E-03
            1985            2298     52.1211E-03     51.8129E-03
            1990            2298     52.1211E-03     51.8129E-03
            1987            2299     56.4577E-03     56.5333E-03
            1986            2299     56.4577E-03     56.5333E-03
            1991            2299     56.4577E-03     56.5333E-03
            1992            2299     56.4577E-03     56.5333E-03
            1988            2300     52.7944E-03     52.0569E-03
            1993            2300     52.7944E-03     52.0569E-03
            1992            2300     52.7944E-03     52.0569E-03
            1987            2300     52.7944E-03     52.0569E-03
            1993            2301     53.1018E-03     51.1921E-03
            1988            2301     53.1018E-03     51.1921E-03
            1994            2301     53.1018E-03     51.1921E-03
            1989            2301     53.1018E-03     51.1921E-03
            1989            2302     52.6132E-03     51.2722E-03
            1994            2302     52.6132E-03     51.2722E-03
            1995            2302     52.6132E-03     51.2722E-03
            1990            2302     52.6132E-03     51.2722E-03
            1991            2303     50.6051E-03     57.9437E-03
            1996            2303     50.6051E-03     57.9437E-03
            1997            2303     50.6051E-03     57.9437E-03
            1992            2303     50.6051E-03     57.9437E-03
            1993            2304     48.7272E-03     55.9758E-03
            1992            2304     48.7272E-03     55.9758E-03
            1997            2304     48.7272E-03     55.9758E-03
            1998            2304     48.7272E-03     55.9758E-03
            1993            2305     49.3406E-03     52.0304E-03
            1994            2305     49.3406E-03     52.0304E-03
            1998            2305     49.3406E-03     52.0304E-03
            1999            2305     49.3406E-03     52.0304E-03
            1995            2306     50.6909E-03     50.4978E-03
            1999            2306     50.6909E-03     50.4978E-03
            1994            2306     50.6909E-03     50.4978E-03
            2000            2306     50.6909E-03     50.4978E-03
            1996            2307     51.1707E-03     49.4285E-03
            2002            2307     51.1707E-03     49.4285E-03
            1997            2307     51.1707E-03     49.4285E-03
            2001            2307     51.1707E-03     49.4285E-03
            1998            2308     52.4681E-03     53.6278E-03
            1997            2308     52.4681E-03     53.6278E-03
            2002            2308     52.4681E-03     53.6278E-03
            2003            2308     52.4681E-03     53.6278E-03
            1998            2309     50.2086E-03     51.3725E-03
            2003            2309     50.2086E-03     51.3725E-03
            1999            2309     50.2086E-03     51.3725E-03
            2004            2309     50.2086E-03     51.3725E-03
            2004            2310     50.5804E-03     50.3076E-03
            1999            2310     50.5804E-03     50.3076E-03
            2005            2310     50.5804E-03     50.3076E-03
            2000            2310     50.5804E-03     50.3076E-03
            2006            2311     55.2830E-03     56.4648E-03
            2002            2311     55.2830E-03     56.4648E-03
            2007            2311     55.2830E-03     56.4648E-03
            2001            2311     55.2830E-03     56.4648E-03
            2007            2312     55.4855E-03     57.4491E-03
            2008            2312     55.4855E-03     57.4491E-03
            2002            2312     55.4855E-03     57.4491E-03
            2003            2312     55.4855E-03     57.4491E-03
            2008            2313     53.6474E-03     54.7274E-03
            2004            2313     53.6474E-03     54.7274E-03
            2009            2313     53.6474E-03     54.7274E-03
            2003            2313     53.6474E-03     54.7274E-03
            2004            2314     51.7428E-03     51.5017E-03
            2010            2314     51.7428E-03     51.5017E-03
            2009            2314     51.7428E-03     51.5017E-03
            2005            2314     51.7428E-03     51.5017E-03
            2006            2315     63.9395E-03     63.3966E-03
            2012            2315     63.9395E-03     63.3966E-03
            2011            2315     63.9395E-03     63.3966E-03
            2007            2315     63.9395E-03     63.3966E-03
            2012            2316     60.6039E-03     60.4143E-03
            2013            2316     60.6039E-03     60.4143E-03
            2007            2316     60.6039E-03     60.4143E-03
            2008            2316     60.6039E-03     60.4143E-03
            2008            2317     57.2671E-03     56.8590E-03
            2009            2317     57.2671E-03     56.8590E-03
            2013            2317     57.2671E-03     56.8590E-03
            2014            2317     57.2671E-03     56.8590E-03
            2009            2318     53.2855E-03     52.8487E-03
            2010            2318     53.2855E-03     52.8487E-03
            2015            2318     53.2855E-03     52.8487E-03
            2014            2318     53.2855E-03     52.8487E-03
            2012            2319     70.9985E-03     76.3811E-03
            2016            2319     70.9985E-03     76.3811E-03
            2017            2319     70.9985E-03     76.3811E-03
            2011            2319     70.9985E-03     76.3811E-03
            2013            2320     64.5667E-03     69.5858E-03
            2017            2320     64.5667E-03     69.5858E-03
            2012            2320     64.5667E-03     69.5858E-03
            2018            2320     64.5667E-03     69.5858E-03
            2014            2321     59.5392E-03     61.3628E-03
            2013            2321     59.5392E-03     61.3628E-03
            2019            2321     59.5392E-03     61.3628E-03
            2018            2321     59.5392E-03     61.3628E-03
            2019            2322     53.6219E-03     54.4499E-03
            2015            2322     53.6219E-03     54.4499E-03
            2014            2322     53.6219E-03     54.4499E-03
            2020            2322     53.6219E-03     54.4499E-03
            2022            2323     88.1374E-03     86.3331E-03
            2017            2323     88.1374E-03     86.3331E-03
            2021            2323     88.1374E-03     86.3331E-03
            2016            2323     88.1374E-03     86.3331E-03
            2023            2324     78.7508E-03     76.1040E-03
            2022            2324     78.7508E-03     76.1040E-03
            2017            2324     78.7508E-03     76.1040E-03
            2018            2324     78.7508E-03     76.1040E-03
            2018            2325     67.9485E-03     64.2813E-03
            2019            2325     67.9485E-03     64.2813E-03
            2024            2325     67.9485E-03     64.2813E-03
            2023            2325     67.9485E-03     64.2813E-03
            2024            2326     56.4936E-03     55.8765E-03
            2019            2326     56.4936E-03     55.8765E-03
            2025            2326     56.4936E-03     55.8765E-03
            2020            2326     56.4936E-03     55.8765E-03
            2021            2327     98.9568E-03     98.3700E-03
            2027            2327     98.9568E-03     98.3700E-03
            2026            2327     98.9568E-03     98.3700E-03
            2022            2327     98.9568E-03     98.3700E-03
            2023            2328     84.6207E-03     83.0094E-03
            2027            2328     84.6207E-03     83.0094E-03
            2028            2328     84.6207E-03     83.0094E-03
            2022            2328     84.6207E-03     83.0094E-03
            2028            2329     70.4355E-03     66.8866E-03
            2024            2329     70.4355E-03     66.8866E-03
            2029            2329     70.4355E-03     66.8866E-03
            2023            2329     70.4355E-03     66.8866E-03
            2030            2330     56.9189E-03     54.8087E-03
            2024            2330     56.9189E-03     54.8087E-03
            2025            2330     56.9189E-03     54.8087E-03
            2029            2330     56.9189E-03     54.8087E-03
            2031            2331     88.0938E-03     101.809E-03
            2032            2331     88.0938E-03     101.809E-03
            2026            2331     88.0938E-03     101.809E-03
            2027            2331     88.0938E-03     101.809E-03
            2032            2332     74.8144E-03     89.6275E-03
            2033            2332     74.8144E-03     89.6275E-03
            2027            2332     74.8144E-03     89.6275E-03
            2028            2332     74.8144E-03     89.6275E-03
            2033            2333     62.4919E-03     69.3740E-03
            2034            2333     62.4919E-03     69.3740E-03
            2028            2333     62.4919E-03     69.3740E-03
            2029            2333     62.4919E-03     69.3740E-03
            2035            2334     53.3825E-03     54.2276E-03
            2030            2334     53.3825E-03     54.2276E-03
            2034            2334     53.3825E-03     54.2276E-03
            2029            2334     53.3825E-03     54.2276E-03
            2031            2335     91.2923E-03     90.4502E-03
            2036            2335     91.2923E-03     90.4502E-03
            2032            2335     91.2923E-03     90.4502E-03
            2037            2335     91.2923E-03     90.4502E-03
            2033            2336     82.8274E-03     84.2299E-03
            2038            2336     82.8274E-03     84.2299E-03
            2032            2336     82.8274E-03     84.2299E-03
            2037            2336     82.8274E-03     84.2299E-03
            2034            2337     66.8321E-03     67.3802E-03
            2039            2337     66.8321E-03     67.3802E-03
            2033            2337     66.8321E-03     67.3802E-03
            2038            2337     66.8321E-03     67.3802E-03
            2034            2338     54.4984E-03     54.4699E-03
            2040            2338     54.4984E-03     54.4699E-03
            2035            2338     54.4984E-03     54.4699E-03
            2039            2338     54.4984E-03     54.4699E-03
            2037            2339     97.4158E-03     94.0743E-03
            2042            2339     97.4158E-03     94.0743E-03
            2036            2339     97.4158E-03     94.0743E-03
            2041            2339     97.4158E-03     94.0743E-03
            2043            2340     87.8533E-03     85.2794E-03
            2037            2340     87.8533E-03     85.2794E-03
            2038            2340     87.8533E-03     85.2794E-03
            2042            2340     87.8533E-03     85.2794E-03
            2043            2341     72.3643E-03     70.1370E-03
            2038            2341     72.3643E-03     70.1370E-03
            2044            2341     72.3643E-03     70.1370E-03
            2039            2341     72.3643E-03     70.1370E-03
            2039            2342     57.0329E-03     55.6131E-03
            2044            2342     57.0329E-03     55.6131E-03
            2045            2342     57.0329E-03     55.6131E-03
            2040            2342     57.0329E-03     55.6131E-03
            2047            2343     97.8987E-03     107.738E-03
            2041            2343     97.8987E-03     107.738E-03
            2046            2343     97.8987E-03     107.738E-03
            2042            2343     97.8987E-03     107.738E-03
            2048            2344     85.0592E-03     95.0032E-03
            2042            2344     85.0592E-03     95.0032E-03
            2047            2344     85.0592E-03     95.0032E-03
            2043            2344     85.0592E-03     95.0032E-03
            2044            2345     72.0751E-03     76.7329E-03
            2048            2345     72.0751E-03     76.7329E-03
            2049            2345     72.0751E-03     76.7329E-03
            2043            2345     72.0751E-03     76.7329E-03
            2045            2346     57.0780E-03     58.7261E-03
            2044            2346     57.0780E-03     58.7261E-03
            2050            2346     57.0780E-03     58.7261E-03
            2049            2346     57.0780E-03     58.7261E-03
            2052            2347     119.210E-03     115.169E-03
            2047            2347     119.210E-03     115.169E-03
            2051            2347     119.210E-03     115.169E-03
            2046            2347     119.210E-03     115.169E-03
            2052            2348     103.775E-03     98.6004E-03
            2047            2348     103.775E-03     98.6004E-03
            2053            2348     103.775E-03     98.6004E-03
            2048            2348     103.775E-03     98.6004E-03
            2054            2349     83.2147E-03     77.9915E-03
            2049            2349     83.2147E-03     77.9915E-03
            2048            2349     83.2147E-03     77.9915E-03
            2053            2349     83.2147E-03     77.9915E-03
            2054            2350     60.4838E-03     59.9760E-03
            2055            2350     60.4838E-03     59.9760E-03
            2049            2350     60.4838E-03     59.9760E-03
            2050            2350     60.4838E-03     59.9760E-03
            2057            2351     129.626E-03     129.272E-03
            2056            2351     129.626E-03     129.272E-03
            2052            2351     129.626E-03     129.272E-03
            2051            2351     129.626E-03     129.272E-03
            2057            2352     109.039E-03     107.346E-03
            2053            2352     109.039E-03     107.346E-03
            2052            2352     109.039E-03     107.346E-03
            2058            2352     109.039E-03     107.346E-03
            2059            2353     85.2123E-03     80.8081E-03
            2053            2353     85.2123E-03     80.8081E-03
            2058            2353     85.2123E-03     80.8081E-03
            2054            2353     85.2123E-03     80.8081E-03
            2059            2354     60.6105E-03     58.1876E-03
            2055            2354     60.6105E-03     58.1876E-03
            2054            2354     60.6105E-03     58.1876E-03
            2060            2354     60.6105E-03     58.1876E-03
            2056            2355     118.023E-03     137.295E-03
            2057            2355     118.023E-03     137.295E-03
            2061            2355     118.023E-03     137.295E-03
            2062            2355     118.023E-03     137.295E-03
            2057            2356     97.2354E-03     118.080E-03
            2063            2356     97.2354E-03     118.080E-03
            2058            2356     97.2354E-03     118.080E-03
            2062            2356     97.2354E-03     118.080E-03
            2064            2357     75.1150E-03     85.1452E-03
            2059            2357     75.1150E-03     85.1452E-03
            2058            2357     75.1150E-03     85.1452E-03
            2063            2357     75.1150E-03     85.1452E-03
            2065            2358     56.2567E-03     57.9705E-03
            2059            2358     56.2567E-03     57.9705E-03
            2060            2358     56.2567E-03     57.9705E-03
            2064            2358     56.2567E-03     57.9705E-03
            2061            2359     126.173E-03     123.138E-03
            2067            2359     126.173E-03     123.138E-03
            2062            2359     126.173E-03     123.138E-03
            2066            2359     126.173E-03     123.138E-03
            2063            2360     109.664E-03     110.319E-03
            2067            2360     109.664E-03     110.319E-03
            2062            2360     109.664E-03     110.319E-03
            2068            2360     109.664E-03     110.319E-03
            2064            2361     81.9395E-03     82.1721E-03
            2069            2361     81.9395E-03     82.1721E-03
            2068            2361     81.9395E-03     82.1721E-03
            2063            2361     81.9395E-03     82.1721E-03
            2069            2362     58.4586E-03     57.9338E-03
            2064            2362     58.4586E-03     57.9338E-03
            2070            2362     58.4586E-03     57.9338E-03
            2065            2362     58.4586E-03     57.9338E-03
            2067            2363     127.557E-03     128.634E-03
            2072            2363     127.557E-03     128.634E-03
            2066            2363     127.557E-03     128.634E-03
            2071            2363     127.557E-03     128.634E-03
            2068            2364     112.118E-03     113.293E-03
            2072            2364     112.118E-03     113.293E-03
            2073            2364     112.118E-03     113.293E-03
            2067            2364     112.118E-03     113.293E-03
            2073            2365     87.6107E-03     86.7694E-03
            2068            2365     87.6107E-03     86.7694E-03
            2074            2365     87.6107E-03     86.7694E-03
            2069            2365     87.6107E-03     86.7694E-03
            2070            2366     61.5243E-03     60.1889E-03
            2069            2366     61.5243E-03     60.1889E-03
            2074            2366     61.5243E-03     60.1889E-03
            2075            2366     61.5243E-03     60.1889E-03
            2071            2367     131.564E-03     134.203E-03
            2077            2367     131.564E-03     134.203E-03
            2072            2367     131.564E-03     134.203E-03
            2076            2367     131.564E-03     134.203E-03
            2078            2368     112.308E-03     115.268E-03
            2073            2368     112.308E-03     115.268E-03
            2072            2368     112.308E-03     115.268E-03
            2077            2368     112.308E-03     115.268E-03
            2078            2369     89.2587E-03     89.3794E-03
            2073            2369     89.2587E-03     89.3794E-03
            2079            2369     89.2587E-03     89.3794E-03
            2074            2369     89.2587E-03     89.3794E-03
            2074            2370     63.5239E-03     62.7539E-03
            2075            2370     63.5239E-03     62.7539E-03
            2079            2370     63.5239E-03     62.7539E-03
            2080            2370     63.5239E-03     62.7539E-03
            2076            2371     138.171E-03     146.332E-03
            2077            2371     138.171E-03     146.332E-03
            2081            2371     138.171E-03     146.332E-03
            2082            2371     138.171E-03     146.332E-03
            2077            2372     116.329E-03     124.402E-03
            2078            2372     116.329E-03     124.402E-03
            2082            2372     116.329E-03     124.402E-03
            2083            2372     116.329E-03     124.402E-03
            2084            2373     92.0026E-03     94.5027E-03
            2079            2373     92.0026E-03     94.5027E-03
            2078            2373     92.0026E-03     94.5027E-03
            2083            2373     92.0026E-03     94.5027E-03
            2079            2374     63.6475E-03     65.0824E-03
            2080            2374     63.6475E-03     65.0824E-03
            2084            2374     63.6475E-03     65.0824E-03
            2085            2374     63.6475E-03     65.0824E-03
            2081            2375     158.400E-03     156.630E-03
            2082            2375     158.400E-03     156.630E-03
            2086            2375     158.400E-03     156.630E-03
            2087            2375     158.400E-03     156.630E-03
            2088            2376     135.474E-03     132.073E-03
            2087            2376     135.474E-03     132.073E-03
            2082            2376     135.474E-03     132.073E-03
            2083            2376     135.474E-03     132.073E-03
            2089            2377     104.215E-03     98.1322E-03
            2084            2377     104.215E-03     98.1322E-03
            2083            2377     104.215E-03     98.1322E-03
            2088            2377     104.215E-03     98.1322E-03
            2084            2378     67.6235E-03     66.8017E-03
            2085            2378     67.6235E-03     66.8017E-03
            2089            2378     67.6235E-03     66.8017E-03
            2090            2378     67.6235E-03     66.8017E-03
            2091            2379     171.108E-03     169.285E-03
            2092            2379     171.108E-03     169.285E-03
            2086            2379     171.108E-03     169.285E-03
            2087            2379     171.108E-03     169.285E-03
            2093            2380     142.403E-03     139.961E-03
            2087            2380     142.403E-03     139.961E-03
            2088            2380     142.403E-03     139.961E-03
            2092            2380     142.403E-03     139.961E-03
            2094            2381     105.785E-03     100.332E-03
            2089            2381     105.785E-03     100.332E-03
            2088            2381     105.785E-03     100.332E-03
            2093            2381     105.785E-03     100.332E-03
            2090            2382     67.0347E-03     63.9881E-03
            2089            2382     67.0347E-03     63.9881E-03
            2095            2382     67.0347E-03     63.9881E-03
            2094            2382     67.0347E-03     63.9881E-03
            2096            2383     154.076E-03     179.091E-03
            2097            2383     154.076E-03     179.091E-03
            2092            2383     154.076E-03     179.091E-03
            2091            2383     154.076E-03     179.091E-03
            2093            2384     124.577E-03     152.222E-03
            2097            2384     124.577E-03     152.222E-03
            2098            2384     124.577E-03     152.222E-03
            2092            2384     124.577E-03     152.222E-03
            2098            2385     91.4423E-03     105.487E-03
            2094            2385     91.4423E-03     105.487E-03
            2093            2385     91.4423E-03     105.487E-03
            2099            2385     91.4423E-03     105.487E-03
            2100            2386     60.9811E-03     63.9054E-03
            2095            2386     60.9811E-03     63.9054E-03
            2094            2386     60.9811E-03     63.9054E-03
            2099            2386     60.9811E-03     63.9054E-03
            2102            2387     163.306E-03     162.049E-03
            2096            2387     163.306E-03     162.049E-03
            2101            2387     163.306E-03     162.049E-03
            2097            2387     163.306E-03     162.049E-03
            2097            2388     139.978E-03     141.126E-03
            2103            2388     139.978E-03     141.126E-03
            2098            2388     139.978E-03     141.126E-03
            2102            2388     139.978E-03     141.126E-03
            2098            2389     101.632E-03     100.973E-03
            2099            2389     101.632E-03     100.973E-03
            2104            2389     101.632E-03     100.973E-03
            2103            2389     101.632E-03     100.973E-03
            2099            2390     64.8855E-03     64.5836E-03
            2105            2390     64.8855E-03     64.5836E-03
            2104            2390     64.8855E-03     64.5836E-03
            2100            2390     64.8855E-03     64.5836E-03
            2102            2391     167.647E-03     161.910E-03
            2106            2391     167.647E-03     161.910E-03
            2107            2391     167.647E-03     161.910E-03
            2101            2391     167.647E-03     161.910E-03
            2107            2392     144.840E-03     139.301E-03
            2103            2392     144.840E-03     139.301E-03
            2102            2392     144.840E-03     139.301E-03
            2108            2392     144.840E-03     139.301E-03
            2104            2393     109.052E-03     103.678E-03
            2103            2393     109.052E-03     103.678E-03
            2109            2393     109.052E-03     103.678E-03
            2108            2393     109.052E-03     103.678E-03
            2105            2394     69.1237E-03     66.3616E-03
            2109            2394     69.1237E-03     66.3616E-03
            2110            2394     69.1237E-03     66.3616E-03
            2104            2394     69.1237E-03     66.3616E-03
            2111            2395     160.321E-03     176.990E-03
            2106            2395     160.321E-03     176.990E-03
            2107            2395     160.321E-03     176.990E-03
            2112            2395     160.321E-03     176.990E-03
            2113            2396     134.019E-03     151.088E-03
            2108            2396     134.019E-03     151.088E-03
            2107            2396     134.019E-03     151.088E-03
            2112            2396     134.019E-03     151.088E-03
            2108            2397     104.521E-03     112.710E-03
            2113            2397     104.521E-03     112.710E-03
            2109            2397     104.521E-03     112.710E-03
            2114            2397     104.521E-03     112.710E-03
            2115            2398     67.9721E-03     71.1493E-03
            2110            2398     67.9721E-03     71.1493E-03
            2114            2398     67.9721E-03     71.1493E-03
            2109            2398     67.9721E-03     71.1493E-03
            2117            2399     187.613E-03     181.237E-03
            2112            2399     187.613E-03     181.237E-03
            2111            2399     187.613E-03     181.237E-03
            2116            2399     187.613E-03     181.237E-03
            2112            2400     159.821E-03     151.860E-03
            2117            2400     159.821E-03     151.860E-03
            2113            2400     159.821E-03     151.860E-03
            2118            2400     159.821E-03     151.860E-03
            2113            2401     120.053E-03     111.816E-03
            2119            2401     120.053E-03     111.816E-03
            2118            2401     120.053E-03     111.816E-03
            2114            2401     120.053E-03     111.816E-03
            2115            2402     72.4416E-03     71.6905E-03
            2114            2402     72.4416E-03     71.6905E-03
            2120            2402     72.4416E-03     71.6905E-03
            2119            2402     72.4416E-03     71.6905E-03
            2116            2403     198.321E-03     197.611E-03
            2117            2403     198.321E-03     197.611E-03
            2122            2403     198.321E-03     197.611E-03
            2121            2403     198.321E-03     197.611E-03
            2118            2404     164.843E-03     162.826E-03
            2117            2404     164.843E-03     162.826E-03
            2123            2404     164.843E-03     162.826E-03
            2122            2404     164.843E-03     162.826E-03
            2123            2405     120.549E-03     114.590E-03
            2124            2405     120.549E-03     114.590E-03
            2119            2405     120.549E-03     114.590E-03
            2118            2405     120.549E-03     114.590E-03
            2120            2406     71.4147E-03     68.2237E-03
            2124            2406     71.4147E-03     68.2237E-03
            2125            2406     71.4147E-03     68.2237E-03
            2119            2406     71.4147E-03     68.2237E-03
            2127            2407     180.261E-03     199.811E-03
            2122            2407     180.261E-03     199.811E-03
            2126            2407     180.261E-03     199.811E-03
            2121            2407     180.261E-03     199.811E-03
            2127            2408     146.841E-03     165.929E-03
            2122            2408     146.841E-03     165.929E-03
            2128            2408     146.841E-03     165.929E-03
            2123            2408     146.841E-03     165.929E-03
            2123            2409     106.112E-03     115.297E-03
            2124            2409     106.112E-03     115.297E-03
            2128            2409     106.112E-03     115.297E-03
            2129            2409     106.112E-03     115.297E-03
            2129            2410     60.8122E-03     62.2030E-03
            2124            2410     60.8122E-03     62.2030E-03
            2130            2410     60.8122E-03     62.2030E-03
            2125            2410     60.8122E-03     62.2030E-03
            2252            2487     211.097E-03     236.077E-03
            2256            2487     211.097E-03     236.077E-03
            2257            2487     211.097E-03     236.077E-03
            2251            2487     211.097E-03     236.077E-03
            2258            2488     179.318E-03     201.233E-03
            2257            2488     179.318E-03     201.233E-03
            2253            2488     179.318E-03     201.233E-03
            2252            2488     179.318E-03     201.233E-03
            2258            2489     149.932E-03     161.080E-03
            2253            2489     149.932E-03     161.080E-03
            2259            2489     149.932E-03     161.080E-03
            2254            2489     149.932E-03     161.080E-03
            2260            2490     118.194E-03     121.245E-03
            2255            2490     118.194E-03     121.245E-03
            2254            2490     118.194E-03     121.245E-03
            2259            2490     118.194E-03     121.245E-03
            2262            2491     220.962E-03     223.285E-03
            2256            2491     220.962E-03     223.285E-03
            2261            2491     220.962E-03     223.285E-03
            2257            2491     220.962E-03     223.285E-03
            2257            2492     191.686E-03     191.758E-03
            2258            2492     191.686E-03     191.758E-03
            2262            2492     191.686E-03     191.758E-03
            2263            2492     191.686E-03     191.758E-03
            2258            2493     166.368E-03     162.775E-03
            2263            2493     166.368E-03     162.775E-03
            2264            2493     166.368E-03     162.775E-03
            2259            2493     166.368E-03     162.775E-03
            2259            2494     139.342E-03     136.636E-03
            2260            2494     139.342E-03     136.636E-03
            2265            2494     139.342E-03     136.636E-03
            2264            2494     139.342E-03     136.636E-03
            2261            2495     201.500E-03     187.549E-03
            2262            2495     201.500E-03     187.549E-03
            2267            2495     201.500E-03     187.549E-03
            2266            2495     201.500E-03     187.549E-03
            2262            2496     188.621E-03     174.918E-03
            2267            2496     188.621E-03     174.918E-03
            2268            2496     188.621E-03     174.918E-03
            2263            2496     188.621E-03     174.918E-03
            2268            2497     164.956E-03     154.687E-03
            2263            2497     164.956E-03     154.687E-03
            2264            2497     164.956E-03     154.687E-03
            2269            2497     164.956E-03     154.687E-03
            2265            2498     138.494E-03     135.683E-03
            2270            2498     138.494E-03     135.683E-03
            2269            2498     138.494E-03     135.683E-03
            2264            2498     138.494E-03     135.683E-03
            2266            2499     158.857E-03     165.668E-03
            2271            2499     158.857E-03     165.668E-03
            2267            2499     158.857E-03     165.668E-03
            2272            2499     158.857E-03     165.668E-03
            2267            2500     155.170E-03     164.348E-03
            2272            2500     155.170E-03     164.348E-03
            2268            2500     155.170E-03     164.348E-03
            2273            2500     155.170E-03     164.348E-03
            2274            2501     140.967E-03     145.616E-03
            2269            2501     140.967E-03     145.616E-03
            2268            2501     140.967E-03     145.616E-03
            2273            2501     140.967E-03     145.616E-03
            2269            2502     128.818E-03     131.307E-03
            2275            2502     128.818E-03     131.307E-03
            2274            2502     128.818E-03     131.307E-03
            2270            2502     128.818E-03     131.307E-03
            2277            2503     121.802E-03     121.088E-03
            2276            2503     121.802E-03     121.088E-03
            2282            2503     121.802E-03     121.088E-03
            2281            2503     121.802E-03     121.088E-03
            2277            2504     126.564E-03     127.094E-03
            2282            2504     126.564E-03     127.094E-03
            2278            2504     126.564E-03     127.094E-03
            2283            2504     126.564E-03     127.094E-03
            2279            2505     132.954E-03     134.670E-03
            2283            2505     132.954E-03     134.670E-03
            2284            2505     132.954E-03     134.670E-03
            2278            2505     132.954E-03     134.670E-03
            2284            2506     135.598E-03     137.935E-03
            2279            2506     135.598E-03     137.935E-03
            2285            2506     135.598E-03     137.935E-03
            2280            2506     135.598E-03     137.935E-03
            2287            2507     128.873E-03     127.243E-03
            2282            2507     128.873E-03     127.243E-03
            2286            2507     128.873E-03     127.243E-03
            2281            2507     128.873E-03     127.243E-03
            2288            2508     129.222E-03     130.925E-03
            2283            2508     129.222E-03     130.925E-03
            2287            2508     129.222E-03     130.925E-03
            2282            2508     129.222E-03     130.925E-03
            2289            2509     130.116E-03     138.700E-03
            2284            2509     130.116E-03     138.700E-03
            2283            2509     130.116E-03     138.700E-03
            2288            2509     130.116E-03     138.700E-03
            2285            2510     134.462E-03     144.656E-03
            2290            2510     134.462E-03     144.656E-03
            2289            2510     134.462E-03     144.656E-03
            2284            2510     134.462E-03     144.656E-03
            2286            2511     128.988E-03     125.442E-03
            2291            2511     128.988E-03     125.442E-03
            2292            2511     128.988E-03     125.442E-03
            2287            2511     128.988E-03     125.442E-03
            2292            2512     131.165E-03     126.413E-03
            2287            2512     131.165E-03     126.413E-03
            2288            2512     131.165E-03     126.413E-03
            2293            2512     131.165E-03     126.413E-03
            2288            2513     133.654E-03     131.820E-03
            2293            2513     133.654E-03     131.820E-03
            2289            2513     133.654E-03     131.820E-03
            2294            2513     133.654E-03     131.820E-03
            2290            2514     146.234E-03     146.302E-03
            2289            2514     146.234E-03     146.302E-03
            2295            2514     146.234E-03     146.302E-03
            2294            2514     146.234E-03     146.302E-03
            2291            2515     127.449E-03     126.263E-03
            2297            2515     127.449E-03     126.263E-03
            2296            2515     127.449E-03     126.263E-03
            2292            2515     127.449E-03     126.263E-03
            2298            2516     125.665E-03     120.660E-03
            2293            2516     125.665E-03     120.660E-03
            2292            2516     125.665E-03     120.660E-03
            2297            2516     125.665E-03     120.660E-03
            2298            2517     121.690E-03     116.613E-03
            2293            2517     121.690E-03     116.613E-03
            2299            2517     121.690E-03     116.613E-03
            2294            2517     121.690E-03     116.613E-03
            2299            2518     121.574E-03     117.000E-03
            2294            2518     121.574E-03     117.000E-03
            2295            2518     121.574E-03     117.000E-03
            2300            2518     121.574E-03     117.000E-03
            2302            2519     122.805E-03     123.979E-03
            2297            2519     122.805E-03     123.979E-03
            2296            2519     122.805E-03     123.979E-03
            2301            2519     122.805E-03     123.979E-03
            2297            2520     112.708E-03     115.777E-03
            2302            2520     112.708E-03     115.777E-03
            2303            2520     112.708E-03     115.777E-03
            2298            2520     112.708E-03     115.777E-03
            2303            2521     95.9940E-03     103.217E-03
            2304            2521     95.9940E-03     103.217E-03
            2298            2521     95.9940E-03     103.217E-03
            2299            2521     95.9940E-03     103.217E-03
            2305            2522     84.1900E-03     93.0629E-03
            2300            2522     84.1900E-03     93.0629E-03
            2299            2522     84.1900E-03     93.0629E-03
            2304            2522     84.1900E-03     93.0629E-03
            2306            2523     122.139E-03     121.786E-03
            2307            2523     122.139E-03     121.786E-03
            2301            2523     122.139E-03     121.786E-03
            2302            2523     122.139E-03     121.786E-03
            2303            2524     109.313E-03     108.629E-03
            2302            2524     109.313E-03     108.629E-03
            2307            2524     109.313E-03     108.629E-03
            2308            2524     109.313E-03     108.629E-03
            2303            2525     88.3497E-03     84.9702E-03
            2309            2525     88.3497E-03     84.9702E-03
            2308            2525     88.3497E-03     84.9702E-03
            2304            2525     88.3497E-03     84.9702E-03
            2310            2526     67.1145E-03     61.8038E-03
            2305            2526     67.1145E-03     61.8038E-03
            2309            2526     67.1145E-03     61.8038E-03
            2304            2526     67.1145E-03     61.8038E-03
            2311            2527     120.955E-03     120.657E-03
            2306            2527     120.955E-03     120.657E-03
            2312            2527     120.955E-03     120.657E-03
            2307            2527     120.955E-03     120.657E-03
            2312            2528     104.032E-03     106.130E-03
            2308            2528     104.032E-03     106.130E-03
            2313            2528     104.032E-03     106.130E-03
            2307            2528     104.032E-03     106.130E-03
            2308            2529     78.9748E-03     80.8069E-03
            2313            2529     78.9748E-03     80.8069E-03
            2314            2529     78.9748E-03     80.8069E-03
            2309            2529     78.9748E-03     80.8069E-03
            2309            2530     46.9899E-03     46.7679E-03
            2315            2530     46.9899E-03     46.7679E-03
            2310            2530     46.9899E-03     46.7679E-03
            2314            2530     46.9899E-03     46.7679E-03
            2311            2531     120.498E-03     119.055E-03
            2316            2531     120.498E-03     119.055E-03
            2317            2531     120.498E-03     119.055E-03
            2312            2531     120.498E-03     119.055E-03
            2318            2532     101.171E-03     102.740E-03
            2312            2532     101.171E-03     102.740E-03
            2313            2532     101.171E-03     102.740E-03
            2317            2532     101.171E-03     102.740E-03
            2319            2533     76.1103E-03     78.5854E-03
            2314            2533     76.1103E-03     78.5854E-03
            2318            2533     76.1103E-03     78.5854E-03
            2313            2533     76.1103E-03     78.5854E-03
            2315            2534     44.0598E-03     47.6164E-03
            2314            2534     44.0598E-03     47.6164E-03
            2320            2534     44.0598E-03     47.6164E-03
            2319            2534     44.0598E-03     47.6164E-03
            2322            2535     97.5174E-03     96.9010E-03
            2317            2535     97.5174E-03     96.9010E-03
            2321            2535     97.5174E-03     96.9010E-03
            2316            2535     97.5174E-03     96.9010E-03
            2317            2536     84.3382E-03     84.6688E-03
            2323            2536     84.3382E-03     84.6688E-03
            2318            2536     84.3382E-03     84.6688E-03
            2322            2536     84.3382E-03     84.6688E-03
            2323            2537     65.6439E-03     66.5876E-03
            2324            2537     65.6439E-03     66.5876E-03
            2319            2537     65.6439E-03     66.5876E-03
            2318            2537     65.6439E-03     66.5876E-03
            2324            2538     43.7207E-03     46.4915E-03
            2319            2538     43.7207E-03     46.4915E-03
            2325            2538     43.7207E-03     46.4915E-03
            2320            2538     43.7207E-03     46.4915E-03
            2372            2565     524.090E-06     571.751E-06
            2389            2565     524.090E-06     571.751E-06
            2371            2565     524.090E-06     571.751E-06
            2388            2565     524.090E-06     571.751E-06
            2389            2566     432.024E-06     485.299E-06
            2372            2566     432.024E-06     485.299E-06
            2390            2566     432.024E-06     485.299E-06
            2373            2566     432.024E-06     485.299E-06
            2373            2567     412.570E-06     466.719E-06
            2390            2567     412.570E-06     466.719E-06
            2374            2567     412.570E-06     466.719E-06
            2391            2567     412.570E-06     466.719E-06
            2375            2568     411.578E-06     461.626E-06
            2392            2568     411.578E-06     461.626E-06
            2374            2568     411.578E-06     461.626E-06
            2391            2568     411.578E-06     461.626E-06
            2376            2569     400.844E-06     450.770E-06
            2392            2569     400.844E-06     450.770E-06
            2393            2569     400.844E-06     450.770E-06
            2375            2569     400.844E-06     450.770E-06
            2377            2570     392.058E-06     441.394E-06
            2376            2570     392.058E-06     441.394E-06
            2394            2570     392.058E-06     441.394E-06
            2393            2570     392.058E-06     441.394E-06
            2394            2571     383.542E-06     431.753E-06
            2395            2571     383.542E-06     431.753E-06
            2377            2571     383.542E-06     431.753E-06
            2378            2571     383.542E-06     431.753E-06
            2379            2572     376.437E-06     423.182E-06
            2396            2572     376.437E-06     423.182E-06
            2378            2572     376.437E-06     423.182E-06
            2395            2572     376.437E-06     423.182E-06
            2380            2573     370.873E-06     415.125E-06
            2397            2573     370.873E-06     415.125E-06
            2396            2573     370.873E-06     415.125E-06
            2379            2573     370.873E-06     415.125E-06
            2397            2574     366.343E-06     407.936E-06
            2381            2574     366.343E-06     407.936E-06
            2380            2574     366.343E-06     407.936E-06
            2398            2574     366.343E-06     407.936E-06
            2382            2575     363.338E-06     401.347E-06
            2381            2575     363.338E-06     401.347E-06
            2398            2575     363.338E-06     401.347E-06
            2399            2575     363.338E-06     401.347E-06
            2383            2576     361.113E-06     395.321E-06
            2382            2576     361.113E-06     395.321E-06
            2400            2576     361.113E-06     395.321E-06
            2399            2576     361.113E-06     395.321E-06
            2400            2577     360.765E-06     390.370E-06
            2401            2577     360.765E-06     390.370E-06
            2384            2577     360.765E-06     390.370E-06
            2383            2577     360.765E-06     390.370E-06
            2401            2578     361.625E-06     384.614E-06
            2402            2578     361.625E-06     384.614E-06
            2385            2578     361.625E-06     384.614E-06
            2384            2578     361.625E-06     384.614E-06
            2385            2579     360.704E-06     381.185E-06
            2386            2579     360.704E-06     381.185E-06
            2403            2579     360.704E-06     381.185E-06
            2402            2579     360.704E-06     381.185E-06
            2404            2580     358.970E-06     386.158E-06
            2387            2580     358.970E-06     386.158E-06
            2403            2580     358.970E-06     386.158E-06
            2386            2580     358.970E-06     386.158E-06
            2388            2581     415.875E-06     427.268E-06
            2389            2581     415.875E-06     427.268E-06
            2406            2581     415.875E-06     427.268E-06
            2405            2581     415.875E-06     427.268E-06
            2406            2582     441.718E-06     471.894E-06
            2407            2582     441.718E-06     471.894E-06
            2389            2582     441.718E-06     471.894E-06
            2390            2582     441.718E-06     471.894E-06
            2391            2583     449.278E-06     473.868E-06
            2390            2583     449.278E-06     473.868E-06
            2407            2583     449.278E-06     473.868E-06
            2408            2583     449.278E-06     473.868E-06
            2409            2584     435.117E-06     460.184E-06
            2391            2584     435.117E-06     460.184E-06
            2408            2584     435.117E-06     460.184E-06
            2392            2584     435.117E-06     460.184E-06
            2409            2585     421.543E-06     446.385E-06
            2392            2585     421.543E-06     446.385E-06
            2410            2585     421.543E-06     446.385E-06
            2393            2585     421.543E-06     446.385E-06
            2411            2586     409.971E-06     434.713E-06
            2410            2586     409.971E-06     434.713E-06
            2393            2586     409.971E-06     434.713E-06
            2394            2586     409.971E-06     434.713E-06
            2394            2587     401.068E-06     425.433E-06
            2411            2587     401.068E-06     425.433E-06
            2412            2587     401.068E-06     425.433E-06
            2395            2587     401.068E-06     425.433E-06
            2412            2588     393.639E-06     417.380E-06
            2395            2588     393.639E-06     417.380E-06
            2413            2588     393.639E-06     417.380E-06
            2396            2588     393.639E-06     417.380E-06
            2413            2589     387.353E-06     410.394E-06
            2396            2589     387.353E-06     410.394E-06
            2397            2589     387.353E-06     410.394E-06
            2414            2589     387.353E-06     410.394E-06
            2414            2590     382.097E-06     404.087E-06
            2397            2590     382.097E-06     404.087E-06
            2398            2590     382.097E-06     404.087E-06
            2415            2590     382.097E-06     404.087E-06
            2415            2591     377.615E-06     398.490E-06
            2416            2591     377.615E-06     398.490E-06
            2399            2591     377.615E-06     398.490E-06
            2398            2591     377.615E-06     398.490E-06
            2417            2592     374.446E-06     393.712E-06
            2399            2592     374.446E-06     393.712E-06
            2416            2592     374.446E-06     393.712E-06
            2400            2592     374.446E-06     393.712E-06
            2401            2593     371.959E-06     389.818E-06
            2417            2593     371.959E-06     389.818E-06
            2418            2593     371.959E-06     389.818E-06
            2400            2593     371.959E-06     389.818E-06
            2418            2594     370.381E-06     389.419E-06
            2401            2594     370.381E-06     389.419E-06
            2402            2594     370.381E-06     389.419E-06
            2419            2594     370.381E-06     389.419E-06
            2419            2595     377.690E-06     385.277E-06
            2420            2595     377.690E-06     385.277E-06
            2403            2595     377.690E-06     385.277E-06
            2402            2595     377.690E-06     385.277E-06
            2404            2596     396.446E-06     363.915E-06
            2421            2596     396.446E-06     363.915E-06
            2420            2596     396.446E-06     363.915E-06
            2403            2596     396.446E-06     363.915E-06
            2423            2597     269.970E-06     292.327E-06
            2422            2597     269.970E-06     292.327E-06
            2406            2597     269.970E-06     292.327E-06
            2405            2597     269.970E-06     292.327E-06
            2407            2598     419.756E-06     425.283E-06
            2406            2598     419.756E-06     425.283E-06
            2424            2598     419.756E-06     425.283E-06
            2423            2598     419.756E-06     425.283E-06
            2424            2599     465.084E-06     458.641E-06
            2425            2599     465.084E-06     458.641E-06
            2407            2599     465.084E-06     458.641E-06
            2408            2599     465.084E-06     458.641E-06
            2425            2600     451.097E-06     447.472E-06
            2426            2600     451.097E-06     447.472E-06
            2409            2600     451.097E-06     447.472E-06
            2408            2600     451.097E-06     447.472E-06
            2410            2601     439.814E-06     436.830E-06
            2426            2601     439.814E-06     436.830E-06
            2409            2601     439.814E-06     436.830E-06
            2427            2601     439.814E-06     436.830E-06
            2411            2602     429.220E-06     426.473E-06
            2410            2602     429.220E-06     426.473E-06
            2428            2602     429.220E-06     426.473E-06
            2427            2602     429.220E-06     426.473E-06
            2412            2603     421.050E-06     418.784E-06
            2429            2603     421.050E-06     418.784E-06
            2428            2603     421.050E-06     418.784E-06
            2411            2603     421.050E-06     418.784E-06
            2429            2604     414.033E-06     412.348E-06
            2413            2604     414.033E-06     412.348E-06
            2412            2604     414.033E-06     412.348E-06
            2430            2604     414.033E-06     412.348E-06
            2414            2605     407.688E-06     406.736E-06
            2413            2605     407.688E-06     406.736E-06
            2430            2605     407.688E-06     406.736E-06
            2431            2605     407.688E-06     406.736E-06
            2432            2606     402.026E-06     401.891E-06
            2431            2606     402.026E-06     401.891E-06
            2415            2606     402.026E-06     401.891E-06
            2414            2606     402.026E-06     401.891E-06
            2416            2607     396.863E-06     397.674E-06
            2415            2607     396.863E-06     397.674E-06
            2433            2607     396.863E-06     397.674E-06
            2432            2607     396.863E-06     397.674E-06
            2416            2608     392.560E-06     394.388E-06
            2433            2608     392.560E-06     394.388E-06
            2417            2608     392.560E-06     394.388E-06
            2434            2608     392.560E-06     394.388E-06
            2417            2609     388.844E-06     392.057E-06
            2435            2609     388.844E-06     392.057E-06
            2418            2609     388.844E-06     392.057E-06
            2434            2609     388.844E-06     392.057E-06
            2418            2610     385.527E-06     393.140E-06
            2436            2610     385.527E-06     393.140E-06
            2435            2610     385.527E-06     393.140E-06
            2419            2610     385.527E-06     393.140E-06
            2420            2611     389.938E-06     392.043E-06
            2436            2611     389.938E-06     392.043E-06
            2419            2611     389.938E-06     392.043E-06
            2437            2611     389.938E-06     392.043E-06
            2438            2612     406.752E-06     375.203E-06
            2421            2612     406.752E-06     375.203E-06
            2420            2612     406.752E-06     375.203E-06
            2437            2612     406.752E-06     375.203E-06
            2422            2613     220.086E-06     237.798E-06
            2439            2613     220.086E-06     237.798E-06
            2440            2613     220.086E-06     237.798E-06
            2423            2613     220.086E-06     237.798E-06
            2423            2614     390.825E-06     354.191E-06
            2440            2614     390.825E-06     354.191E-06
            2441            2614     390.825E-06     354.191E-06
            2424            2614     390.825E-06     354.191E-06
            2424            2615     444.530E-06     408.884E-06
            2442            2615     444.530E-06     408.884E-06
            2425            2615     444.530E-06     408.884E-06
            2441            2615     444.530E-06     408.884E-06
            2443            2616     458.904E-06     423.405E-06
            2426            2616     458.904E-06     423.405E-06
            2425            2616     458.904E-06     423.405E-06
            2442            2616     458.904E-06     423.405E-06
            2426            2617     455.185E-06     421.588E-06
            2443            2617     455.185E-06     421.588E-06
            2427            2617     455.185E-06     421.588E-06
            2444            2617     455.185E-06     421.588E-06
            2445            2618     450.045E-06     417.490E-06
            2428            2618     450.045E-06     417.490E-06
            2427            2618     450.045E-06     417.490E-06
            2444            2618     450.045E-06     417.490E-06
            2429            2619     443.769E-06     412.800E-06
            2445            2619     443.769E-06     412.800E-06
            2428            2619     443.769E-06     412.800E-06
            2446            2619     443.769E-06     412.800E-06
            2447            2620     437.609E-06     408.484E-06
            2429            2620     437.609E-06     408.484E-06
            2430            2620     437.609E-06     408.484E-06
            2446            2620     437.609E-06     408.484E-06
            2431            2621     431.714E-06     404.630E-06
            2430            2621     431.714E-06     404.630E-06
            2447            2621     431.714E-06     404.630E-06
            2448            2621     431.714E-06     404.630E-06
            2431            2622     425.825E-06     401.471E-06
            2432            2622     425.825E-06     401.471E-06
            2449            2622     425.825E-06     401.471E-06
            2448            2622     425.825E-06     401.471E-06
            2450            2623     420.514E-06     399.059E-06
            2433            2623     420.514E-06     399.059E-06
            2432            2623     420.514E-06     399.059E-06
            2449            2623     420.514E-06     399.059E-06
            2433            2624     415.120E-06     397.302E-06
            2450            2624     415.120E-06     397.302E-06
            2451            2624     415.120E-06     397.302E-06
            2434            2624     415.120E-06     397.302E-06
            2451            2625     410.754E-06     396.963E-06
            2452            2625     410.754E-06     396.963E-06
            2434            2625     410.754E-06     396.963E-06
            2435            2625     410.754E-06     396.963E-06
            2435            2626     406.614E-06     396.129E-06
            2436            2626     406.614E-06     396.129E-06
            2453            2626     406.614E-06     396.129E-06
            2452            2626     406.614E-06     396.129E-06
            2453            2627     399.268E-06     399.660E-06
            2454            2627     399.268E-06     399.660E-06
            2436            2627     399.268E-06     399.660E-06
            2437            2627     399.268E-06     399.660E-06
            2437            2628     390.494E-06     414.335E-06
            2455            2628     390.494E-06     414.335E-06
            2454            2628     390.494E-06     414.335E-06
            2438            2628     390.494E-06     414.335E-06
            2457            2629     131.249E-03     134.024E-03
            2473            2629     131.249E-03     134.024E-03
            2474            2629     131.249E-03     134.024E-03
            2456            2629     131.249E-03     134.024E-03
            2474            2630     124.050E-03     126.466E-03
            2475            2630     124.050E-03     126.466E-03
            2458            2630     124.050E-03     126.466E-03
            2457            2630     124.050E-03     126.466E-03
            2476            2631     115.995E-03     118.456E-03
            2475            2631     115.995E-03     118.456E-03
            2458            2631     115.995E-03     118.456E-03
            2459            2631     115.995E-03     118.456E-03
            2459            2632     108.237E-03     110.893E-03
            2460            2632     108.237E-03     110.893E-03
            2477            2632     108.237E-03     110.893E-03
            2476            2632     108.237E-03     110.893E-03
            2477            2633     100.573E-03     103.010E-03
            2461            2633     100.573E-03     103.010E-03
            2460            2633     100.573E-03     103.010E-03
            2478            2633     100.573E-03     103.010E-03
            2479            2634     92.7420E-03     95.3853E-03
            2478            2634     92.7420E-03     95.3853E-03
            2461            2634     92.7420E-03     95.3853E-03
            2462            2634     92.7420E-03     95.3853E-03
            2480            2635     85.0964E-03     87.5944E-03
            2462            2635     85.0964E-03     87.5944E-03
            2479            2635     85.0964E-03     87.5944E-03
            2463            2635     85.0964E-03     87.5944E-03
            2464            2636     77.3462E-03     79.9620E-03
            2463            2636     77.3462E-03     79.9620E-03
            2481            2636     77.3462E-03     79.9620E-03
            2480            2636     77.3462E-03     79.9620E-03
            2465            2637     69.7106E-03     72.2682E-03
            2464            2637     69.7106E-03     72.2682E-03
            2481            2637     69.7106E-03     72.2682E-03
            2482            2637     69.7106E-03     72.2682E-03
            2482            2638     62.0540E-03     64.6736E-03
            2466            2638     62.0540E-03     64.6736E-03
            2465            2638     62.0540E-03     64.6736E-03
            2483            2638     62.0540E-03     64.6736E-03
            2484            2639     54.4817E-03     57.0997E-03
            2466            2639     54.4817E-03     57.0997E-03
            2483            2639     54.4817E-03     57.0997E-03
            2467            2639     54.4817E-03     57.0997E-03
            2467            2640     46.9701E-03     49.6357E-03
            2484            2640     46.9701E-03     49.6357E-03
            2485            2640     46.9701E-03     49.6357E-03
            2468            2640     46.9701E-03     49.6357E-03
            2485            2641     39.5818E-03     42.2921E-03
            2468            2641     39.5818E-03     42.2921E-03
            2486            2641     39.5818E-03     42.2921E-03
            2469            2641     39.5818E-03     42.2921E-03
            2487            2642     32.4811E-03     35.2544E-03
            2469            2642     32.4811E-03     35.2544E-03
            2486            2642     32.4811E-03     35.2544E-03
            2470            2642     32.4811E-03     35.2544E-03
            2487            2643     25.6566E-03     28.4228E-03
            2488            2643     25.6566E-03     28.4228E-03
            2470            2643     25.6566E-03     28.4228E-03
            2471            2643     25.6566E-03     28.4228E-03
            2488            2644     20.8954E-03     24.0139E-03
            2472            2644     20.8954E-03     24.0139E-03
            2489            2644     20.8954E-03     24.0139E-03
            2471            2644     20.8954E-03     24.0139E-03
            2474            2645     123.260E-03     123.058E-03
            2491            2645     123.260E-03     123.058E-03
            2490            2645     123.260E-03     123.058E-03
            2473            2645     123.260E-03     123.058E-03
            2491            2646     106.432E-03     103.319E-03
            2475            2646     106.432E-03     103.319E-03
            2474            2646     106.432E-03     103.319E-03
            2492            2646     106.432E-03     103.319E-03
            2476            2647     94.3790E-03     90.6347E-03
            2493            2647     94.3790E-03     90.6347E-03
            2492            2647     94.3790E-03     90.6347E-03
            2475            2647     94.3790E-03     90.6347E-03
            2476            2648     86.4377E-03     82.8788E-03
            2494            2648     86.4377E-03     82.8788E-03
            2493            2648     86.4377E-03     82.8788E-03
            2477            2648     86.4377E-03     82.8788E-03
            2494            2649     79.8190E-03     76.1515E-03
            2477            2649     79.8190E-03     76.1515E-03
            2478            2649     79.8190E-03     76.1515E-03
            2495            2649     79.8190E-03     76.1515E-03
            2496            2650     73.7166E-03     70.2877E-03
            2478            2650     73.7166E-03     70.2877E-03
            2479            2650     73.7166E-03     70.2877E-03
            2495            2650     73.7166E-03     70.2877E-03
            2479            2651     67.9629E-03     64.4848E-03
            2480            2651     67.9629E-03     64.4848E-03
            2497            2651     67.9629E-03     64.4848E-03
            2496            2651     67.9629E-03     64.4848E-03
            2480            2652     62.1784E-03     58.8368E-03
            2498            2652     62.1784E-03     58.8368E-03
            2497            2652     62.1784E-03     58.8368E-03
            2481            2652     62.1784E-03     58.8368E-03
            2481            2653     56.4873E-03     53.1388E-03
            2499            2653     56.4873E-03     53.1388E-03
            2482            2653     56.4873E-03     53.1388E-03
            2498            2653     56.4873E-03     53.1388E-03
            2482            2654     50.7738E-03     47.5093E-03
            2499            2654     50.7738E-03     47.5093E-03
            2500            2654     50.7738E-03     47.5093E-03
            2483            2654     50.7738E-03     47.5093E-03
            2484            2655     45.1601E-03     41.9061E-03
            2501            2655     45.1601E-03     41.9061E-03
            2483            2655     45.1601E-03     41.9061E-03
            2500            2655     45.1601E-03     41.9061E-03
            2484            2656     39.6490E-03     36.4175E-03
            2501            2656     39.6490E-03     36.4175E-03
            2502            2656     39.6490E-03     36.4175E-03
            2485            2656     39.6490E-03     36.4175E-03
            2486            2657     34.3599E-03     31.1385E-03
            2503            2657     34.3599E-03     31.1385E-03
            2485            2657     34.3599E-03     31.1385E-03
            2502            2657     34.3599E-03     31.1385E-03
            2504            2658     29.4331E-03     26.2504E-03
            2486            2658     29.4331E-03     26.2504E-03
            2503            2658     29.4331E-03     26.2504E-03
            2487            2658     29.4331E-03     26.2504E-03
            2488            2659     24.8090E-03     22.1211E-03
            2505            2659     24.8090E-03     22.1211E-03
            2487            2659     24.8090E-03     22.1211E-03
            2504            2659     24.8090E-03     22.1211E-03
            2488            2660     20.8941E-03     21.0660E-03
            2489            2660     20.8941E-03     21.0660E-03
            2505            2660     20.8941E-03     21.0660E-03
            2506            2660     20.8941E-03     21.0660E-03
            2490            2661     112.701E-03     120.206E-03
            2508            2661     112.701E-03     120.206E-03
            2491            2661     112.701E-03     120.206E-03
            2507            2661     112.701E-03     120.206E-03
            2509            2662     78.6189E-03     87.4936E-03
            2491            2662     78.6189E-03     87.4936E-03
            2492            2662     78.6189E-03     87.4936E-03
            2508            2662     78.6189E-03     87.4936E-03
            2509            2663     63.4129E-03     72.0801E-03
            2493            2663     63.4129E-03     72.0801E-03
            2510            2663     63.4129E-03     72.0801E-03
            2492            2663     63.4129E-03     72.0801E-03
            2493            2664     55.5534E-03     64.1398E-03
            2494            2664     55.5534E-03     64.1398E-03
            2510            2664     55.5534E-03     64.1398E-03
            2511            2664     55.5534E-03     64.1398E-03
            2512            2665     50.1182E-03     58.7336E-03
            2495            2665     50.1182E-03     58.7336E-03
            2494            2665     50.1182E-03     58.7336E-03
            2511            2665     50.1182E-03     58.7336E-03
            2496            2666     45.9803E-03     54.5571E-03
            2513            2666     45.9803E-03     54.5571E-03
            2495            2666     45.9803E-03     54.5571E-03
            2512            2666     45.9803E-03     54.5571E-03
            2513            2667     42.0902E-03     50.6292E-03
            2497            2667     42.0902E-03     50.6292E-03
            2514            2667     42.0902E-03     50.6292E-03
            2496            2667     42.0902E-03     50.6292E-03
            2497            2668     38.3303E-03     46.8234E-03
            2515            2668     38.3303E-03     46.8234E-03
            2498            2668     38.3303E-03     46.8234E-03
            2514            2668     38.3303E-03     46.8234E-03
            2498            2669     34.5725E-03     42.9817E-03
            2499            2669     34.5725E-03     42.9817E-03
            2516            2669     34.5725E-03     42.9817E-03
            2515            2669     34.5725E-03     42.9817E-03
            2499            2670     30.8457E-03     39.1507E-03
            2517            2670     30.8457E-03     39.1507E-03
            2516            2670     30.8457E-03     39.1507E-03
            2500            2670     30.8457E-03     39.1507E-03
            2501            2671     27.2131E-03     35.3327E-03
            2517            2671     27.2131E-03     35.3327E-03
            2518            2671     27.2131E-03     35.3327E-03
            2500            2671     27.2131E-03     35.3327E-03
            2501            2672     23.7635E-03     31.6061E-03
            2502            2672     23.7635E-03     31.6061E-03
            2519            2672     23.7635E-03     31.6061E-03
            2518            2672     23.7635E-03     31.6061E-03
            2520            2673     20.6852E-03     28.0368E-03
            2502            2673     20.6852E-03     28.0368E-03
            2503            2673     20.6852E-03     28.0368E-03
            2519            2673     20.6852E-03     28.0368E-03
            2503            2674     18.1437E-03     24.8869E-03
            2520            2674     18.1437E-03     24.8869E-03
            2521            2674     18.1437E-03     24.8869E-03
            2504            2674     18.1437E-03     24.8869E-03
            2505            2675     16.2751E-03     22.5535E-03
            2504            2675     16.2751E-03     22.5535E-03
            2521            2675     16.2751E-03     22.5535E-03
            2522            2675     16.2751E-03     22.5535E-03
            2506            2676     16.7461E-03     22.4274E-03
            2505            2676     16.7461E-03     22.4274E-03
            2523            2676     16.7461E-03     22.4274E-03
            2522            2676     16.7461E-03     22.4274E-03
            2524            2677     104.066E-03     104.621E-03
            2525            2677     104.066E-03     104.621E-03
            2508            2677     104.066E-03     104.621E-03
            2507            2677     104.066E-03     104.621E-03
            2509            2678     79.5887E-03     83.4480E-03
            2526            2678     79.5887E-03     83.4480E-03
            2525            2678     79.5887E-03     83.4480E-03
            2508            2678     79.5887E-03     83.4480E-03
            2509            2679     64.8703E-03     70.5593E-03
            2527            2679     64.8703E-03     70.5593E-03
            2510            2679     64.8703E-03     70.5593E-03
            2526            2679     64.8703E-03     70.5593E-03
            2527            2680     57.8800E-03     63.8070E-03
            2510            2680     57.8800E-03     63.8070E-03
            2528            2680     57.8800E-03     63.8070E-03
            2511            2680     57.8800E-03     63.8070E-03
            2528            2681     53.1166E-03     58.8784E-03
            2512            2681     53.1166E-03     58.8784E-03
            2529            2681     53.1166E-03     58.8784E-03
            2511            2681     53.1166E-03     58.8784E-03
            2512            2682     48.9301E-03     54.5844E-03
            2529            2682     48.9301E-03     54.5844E-03
            2513            2682     48.9301E-03     54.5844E-03
            2530            2682     48.9301E-03     54.5844E-03
            2530            2683     45.0046E-03     50.5664E-03
            2513            2683     45.0046E-03     50.5664E-03
            2514            2683     45.0046E-03     50.5664E-03
            2531            2683     45.0046E-03     50.5664E-03
            2532            2684     41.1335E-03     46.6223E-03
            2514            2684     41.1335E-03     46.6223E-03
            2531            2684     41.1335E-03     46.6223E-03
            2515            2684     41.1335E-03     46.6223E-03
            2515            2685     37.3208E-03     42.7340E-03
            2516            2685     37.3208E-03     42.7340E-03
            2533            2685     37.3208E-03     42.7340E-03
            2532            2685     37.3208E-03     42.7340E-03
            2516            2686     33.5742E-03     38.8806E-03
            2517            2686     33.5742E-03     38.8806E-03
            2534            2686     33.5742E-03     38.8806E-03
            2533            2686     33.5742E-03     38.8806E-03
            2518            2687     29.9402E-03     35.1038E-03
            2517            2687     29.9402E-03     35.1038E-03
            2534            2687     29.9402E-03     35.1038E-03
            2535            2687     29.9402E-03     35.1038E-03
            2518            2688     26.5010E-03     31.4511E-03
            2536            2688     26.5010E-03     31.4511E-03
            2519            2688     26.5010E-03     31.4511E-03
            2535            2688     26.5010E-03     31.4511E-03
            2536            2689     23.4804E-03     28.0309E-03
            2520            2689     23.4804E-03     28.0309E-03
            2519            2689     23.4804E-03     28.0309E-03
            2537            2689     23.4804E-03     28.0309E-03
            2520            2690     21.0496E-03     24.9737E-03
            2537            2690     21.0496E-03     24.9737E-03
            2521            2690     21.0496E-03     24.9737E-03
            2538            2690     21.0496E-03     24.9737E-03
            2539            2691     20.1801E-03     22.8511E-03
            2521            2691     20.1801E-03     22.8511E-03
            2538            2691     20.1801E-03     22.8511E-03
            2522            2691     20.1801E-03     22.8511E-03
            2539            2692     22.1539E-03     21.7016E-03
            2540            2692     22.1539E-03     21.7016E-03
            2523            2692     22.1539E-03     21.7016E-03
            2522            2692     22.1539E-03     21.7016E-03
            2524            2693     87.2217E-03     89.0160E-03
            2542            2693     87.2217E-03     89.0160E-03
            2541            2693     87.2217E-03     89.0160E-03
            2525            2693     87.2217E-03     89.0160E-03
            2543            2694     72.9497E-03     74.9017E-03
            2526            2694     72.9497E-03     74.9017E-03
            2542            2694     72.9497E-03     74.9017E-03
            2525            2694     72.9497E-03     74.9017E-03
            2544            2695     65.2520E-03     68.2296E-03
            2543            2695     65.2520E-03     68.2296E-03
            2526            2695     65.2520E-03     68.2296E-03
            2527            2695     65.2520E-03     68.2296E-03
            2528            2696     60.2086E-03     63.3633E-03
            2545            2696     60.2086E-03     63.3633E-03
            2544            2696     60.2086E-03     63.3633E-03
            2527            2696     60.2086E-03     63.3633E-03
            2529            2697     56.1243E-03     59.0237E-03
            2546            2697     56.1243E-03     59.0237E-03
            2545            2697     56.1243E-03     59.0237E-03
            2528            2697     56.1243E-03     59.0237E-03
            2529            2698     51.8889E-03     54.6417E-03
            2547            2698     51.8889E-03     54.6417E-03
            2530            2698     51.8889E-03     54.6417E-03
            2546            2698     51.8889E-03     54.6417E-03
            2530            2699     47.8003E-03     50.4645E-03
            2547            2699     47.8003E-03     50.4645E-03
            2548            2699     47.8003E-03     50.4645E-03
            2531            2699     47.8003E-03     50.4645E-03
            2548            2700     43.8035E-03     46.3974E-03
            2549            2700     43.8035E-03     46.3974E-03
            2532            2700     43.8035E-03     46.3974E-03
            2531            2700     43.8035E-03     46.3974E-03
            2532            2701     39.9338E-03     42.4680E-03
            2550            2701     39.9338E-03     42.4680E-03
            2549            2701     39.9338E-03     42.4680E-03
            2533            2701     39.9338E-03     42.4680E-03
            2551            2702     36.1918E-03     38.6613E-03
            2550            2702     36.1918E-03     38.6613E-03
            2534            2702     36.1918E-03     38.6613E-03
            2533            2702     36.1918E-03     38.6613E-03
            2535            2703     32.6033E-03     34.9921E-03
            2534            2703     32.6033E-03     34.9921E-03
            2552            2703     32.6033E-03     34.9921E-03
            2551            2703     32.6033E-03     34.9921E-03
            2552            2704     29.2371E-03     31.5137E-03
            2553            2704     29.2371E-03     31.5137E-03
            2535            2704     29.2371E-03     31.5137E-03
            2536            2704     29.2371E-03     31.5137E-03
            2554            2705     26.1949E-03     28.3402E-03
            2553            2705     26.1949E-03     28.3402E-03
            2537            2705     26.1949E-03     28.3402E-03
            2536            2705     26.1949E-03     28.3402E-03
            2538            2706     24.1127E-03     25.6118E-03
            2554            2706     24.1127E-03     25.6118E-03
            2555            2706     24.1127E-03     25.6118E-03
            2537            2706     24.1127E-03     25.6118E-03
            2555            2707     23.6901E-03     23.4105E-03
            2538            2707     23.6901E-03     23.4105E-03
            2556            2707     23.6901E-03     23.4105E-03
            2539            2707     23.6901E-03     23.4105E-03
            2539            2708     24.7953E-03     22.8684E-03
            2556            2708     24.7953E-03     22.8684E-03
            2540            2708     24.7953E-03     22.8684E-03
            2557            2708     24.7953E-03     22.8684E-03
            2542            2709     71.3633E-03     71.1025E-03
            2541            2709     71.3633E-03     71.1025E-03
            2559            2709     71.3633E-03     71.1025E-03
            2558            2709     71.3633E-03     71.1025E-03
            2560            2710     62.3120E-03     63.8448E-03
            2559            2710     62.3120E-03     63.8448E-03
            2542            2710     62.3120E-03     63.8448E-03
            2543            2710     62.3120E-03     63.8448E-03
            2543            2711     62.8610E-03     63.7289E-03
            2560            2711     62.8610E-03     63.7289E-03
            2544            2711     62.8610E-03     63.7289E-03
            2561            2711     62.8610E-03     63.7289E-03
            2544            2712     61.7036E-03     61.7802E-03
            2562            2712     61.7036E-03     61.7802E-03
            2545            2712     61.7036E-03     61.7802E-03
            2561            2712     61.7036E-03     61.7802E-03
            2545            2713     58.0673E-03     58.0302E-03
            2563            2713     58.0673E-03     58.0302E-03
            2562            2713     58.0673E-03     58.0302E-03
            2546            2713     58.0673E-03     58.0302E-03
            2563            2714     54.1740E-03     54.0034E-03
            2546            2714     54.1740E-03     54.0034E-03
            2547            2714     54.1740E-03     54.0034E-03
            2564            2714     54.1740E-03     54.0034E-03
            2548            2715     50.0529E-03     49.8471E-03
            2547            2715     50.0529E-03     49.8471E-03
            2565            2715     50.0529E-03     49.8471E-03
            2564            2715     50.0529E-03     49.8471E-03
            2548            2716     46.0962E-03     45.8740E-03
            2566            2716     46.0962E-03     45.8740E-03
            2549            2716     46.0962E-03     45.8740E-03
            2565            2716     46.0962E-03     45.8740E-03
            2549            2717     42.2813E-03     42.0559E-03
            2550            2717     42.2813E-03     42.0559E-03
            2567            2717     42.2813E-03     42.0559E-03
            2566            2717     42.2813E-03     42.0559E-03
            2550            2718     38.6475E-03     38.4208E-03
            2568            2718     38.6475E-03     38.4208E-03
            2567            2718     38.6475E-03     38.4208E-03
            2551            2718     38.6475E-03     38.4208E-03
            2568            2719     35.1894E-03     34.9831E-03
            2551            2719     35.1894E-03     34.9831E-03
            2552            2719     35.1894E-03     34.9831E-03
            2569            2719     35.1894E-03     34.9831E-03
            2552            2720     31.9456E-03     31.7797E-03
            2569            2720     31.9456E-03     31.7797E-03
            2553            2720     31.9456E-03     31.7797E-03
            2570            2720     31.9456E-03     31.7797E-03
            2553            2721     29.0090E-03     28.9428E-03
            2554            2721     29.0090E-03     28.9428E-03
            2571            2721     29.0090E-03     28.9428E-03
            2570            2721     29.0090E-03     28.9428E-03
            2571            2722     26.7227E-03     26.7099E-03
            2554            2722     26.7227E-03     26.7099E-03
            2555            2722     26.7227E-03     26.7099E-03
            2572            2722     26.7227E-03     26.7099E-03
            2555            2723     25.9280E-03     25.1735E-03
            2556            2723     25.9280E-03     25.1735E-03
            2573            2723     25.9280E-03     25.1735E-03
            2572            2723     25.9280E-03     25.1735E-03
            2556            2724     27.0275E-03     24.6562E-03
            2573            2724     27.0275E-03     24.6562E-03
            2557            2724     27.0275E-03     24.6562E-03
            2574            2724     27.0275E-03     24.6562E-03
            2558            2725     55.3016E-03     54.3069E-03
            2576            2725     55.3016E-03     54.3069E-03
            2559            2725     55.3016E-03     54.3069E-03
            2575            2725     55.3016E-03     54.3069E-03
            2560            2726     53.3617E-03     52.2894E-03
            2559            2726     53.3617E-03     52.2894E-03
            2577            2726     53.3617E-03     52.2894E-03
            2576            2726     53.3617E-03     52.2894E-03
            2577            2727     60.1340E-03     57.6521E-03
            2560            2727     60.1340E-03     57.6521E-03
            2578            2727     60.1340E-03     57.6521E-03
            2561            2727     60.1340E-03     57.6521E-03
            2578            2728     60.7849E-03     57.7199E-03
            2579            2728     60.7849E-03     57.7199E-03
            2561            2728     60.7849E-03     57.7199E-03
            2562            2728     60.7849E-03     57.7199E-03
            2563            2729     58.6004E-03     55.4087E-03
            2579            2729     58.6004E-03     55.4087E-03
            2562            2729     58.6004E-03     55.4087E-03
            2580            2729     58.6004E-03     55.4087E-03
            2563            2730     55.1690E-03     52.0464E-03
            2581            2730     55.1690E-03     52.0464E-03
            2580            2730     55.1690E-03     52.0464E-03
            2564            2730     55.1690E-03     52.0464E-03
            2565            2731     51.5331E-03     48.4745E-03
            2581            2731     51.5331E-03     48.4745E-03
            2564            2731     51.5331E-03     48.4745E-03
            2582            2731     51.5331E-03     48.4745E-03
            2582            2732     47.8590E-03     44.8933E-03
            2583            2732     47.8590E-03     44.8933E-03
            2565            2732     47.8590E-03     44.8933E-03
            2566            2732     47.8590E-03     44.8933E-03
            2583            2733     44.3160E-03     41.4437E-03
            2584            2733     44.3160E-03     41.4437E-03
            2566            2733     44.3160E-03     41.4437E-03
            2567            2733     44.3160E-03     41.4437E-03
            2584            2734     40.9134E-03     38.1628E-03
            2568            2734     40.9134E-03     38.1628E-03
            2585            2734     40.9134E-03     38.1628E-03
            2567            2734     40.9134E-03     38.1628E-03
            2586            2735     37.6835E-03     35.0761E-03
            2569            2735     37.6835E-03     35.0761E-03
            2568            2735     37.6835E-03     35.0761E-03
            2585            2735     37.6835E-03     35.0761E-03
            2587            2736     34.6382E-03     32.2654E-03
            2570            2736     34.6382E-03     32.2654E-03
            2586            2736     34.6382E-03     32.2654E-03
            2569            2736     34.6382E-03     32.2654E-03
            2588            2737     31.8757E-03     29.8204E-03
            2587            2737     31.8757E-03     29.8204E-03
            2570            2737     31.8757E-03     29.8204E-03
            2571            2737     31.8757E-03     29.8204E-03
            2589            2738     29.2758E-03     28.0773E-03
            2572            2738     29.2758E-03     28.0773E-03
            2588            2738     29.2758E-03     28.0773E-03
            2571            2738     29.2758E-03     28.0773E-03
            2590            2739     27.4622E-03     27.5920E-03
            2589            2739     27.4622E-03     27.5920E-03
            2572            2739     27.4622E-03     27.5920E-03
            2573            2739     27.4622E-03     27.5920E-03
            2573            2740     28.6869E-03     27.9660E-03
            2574            2740     28.6869E-03     27.9660E-03
            2591            2740     28.6869E-03     27.9660E-03
            2590            2740     28.6869E-03     27.9660E-03
            2575            2741     44.3674E-03     43.3029E-03
            2576            2741     44.3674E-03     43.3029E-03
            2592            2741     44.3674E-03     43.3029E-03
            2593            2741     44.3674E-03     43.3029E-03
            2576            2742     47.9064E-03     41.8493E-03
            2594            2742     47.9064E-03     41.8493E-03
            2577            2742     47.9064E-03     41.8493E-03
            2593            2742     47.9064E-03     41.8493E-03
            2577            2743     56.0817E-03     49.1594E-03
            2594            2743     56.0817E-03     49.1594E-03
            2578            2743     56.0817E-03     49.1594E-03
            2595            2743     56.0817E-03     49.1594E-03
            2578            2744     57.9049E-03     51.3190E-03
            2579            2744     57.9049E-03     51.3190E-03
            2595            2744     57.9049E-03     51.3190E-03
            2596            2744     57.9049E-03     51.3190E-03
            2579            2745     57.2621E-03     50.9277E-03
            2580            2745     57.2621E-03     50.9277E-03
            2597            2745     57.2621E-03     50.9277E-03
            2596            2745     57.2621E-03     50.9277E-03
            2580            2746     55.0796E-03     48.9868E-03
            2598            2746     55.0796E-03     48.9868E-03
            2581            2746     55.0796E-03     48.9868E-03
            2597            2746     55.0796E-03     48.9868E-03
            2598            2747     52.2771E-03     46.4540E-03
            2581            2747     52.2771E-03     46.4540E-03
            2582            2747     52.2771E-03     46.4540E-03
            2599            2747     52.2771E-03     46.4540E-03
            2583            2748     49.2355E-03     43.6258E-03
            2582            2748     49.2355E-03     43.6258E-03
            2600            2748     49.2355E-03     43.6258E-03
            2599            2748     49.2355E-03     43.6258E-03
            2600            2749     46.1222E-03     40.7700E-03
            2584            2749     46.1222E-03     40.7700E-03
            2583            2749     46.1222E-03     40.7700E-03
            2601            2749     46.1222E-03     40.7700E-03
            2585            2750     43.0522E-03     37.9753E-03
            2584            2750     43.0522E-03     37.9753E-03
            2602            2750     43.0522E-03     37.9753E-03
            2601            2750     43.0522E-03     37.9753E-03
            2603            2751     40.0917E-03     35.3507E-03
            2586            2751     40.0917E-03     35.3507E-03
            2585            2751     40.0917E-03     35.3507E-03
            2602            2751     40.0917E-03     35.3507E-03
            2587            2752     37.2902E-03     32.9796E-03
            2586            2752     37.2902E-03     32.9796E-03
            2603            2752     37.2902E-03     32.9796E-03
            2604            2752     37.2902E-03     32.9796E-03
            2604            2753     34.6903E-03     30.9898E-03
            2587            2753     34.6903E-03     30.9898E-03
            2605            2753     34.6903E-03     30.9898E-03
            2588            2753     34.6903E-03     30.9898E-03
            2589            2754     32.3278E-03     29.6198E-03
            2606            2754     32.3278E-03     29.6198E-03
            2588            2754     32.3278E-03     29.6198E-03
            2605            2754     32.3278E-03     29.6198E-03
            2606            2755     29.9799E-03     29.4368E-03
            2590            2755     29.9799E-03     29.4368E-03
            2589            2755     29.9799E-03     29.4368E-03
            2607            2755     29.9799E-03     29.4368E-03
            2608            2756     28.8461E-03     31.9159E-03
            2591            2756     28.8461E-03     31.9159E-03
            2590            2756     28.8461E-03     31.9159E-03
            2607            2756     28.8461E-03     31.9159E-03
            2610            2757     25.8476E-03     25.4211E-03
            2609            2757     25.8476E-03     25.4211E-03
            2592            2757     25.8476E-03     25.4211E-03
            2593            2757     25.8476E-03     25.4211E-03
            2593            2758     28.2227E-03     23.6696E-03
            2594            2758     28.2227E-03     23.6696E-03
            2611            2758     28.2227E-03     23.6696E-03
            2610            2758     28.2227E-03     23.6696E-03
            2612            2759     31.4603E-03     27.0564E-03
            2594            2759     31.4603E-03     27.0564E-03
            2595            2759     31.4603E-03     27.0564E-03
            2611            2759     31.4603E-03     27.0564E-03
            2595            2760     32.8553E-03     28.7779E-03
            2613            2760     32.8553E-03     28.7779E-03
            2596            2760     32.8553E-03     28.7779E-03
            2612            2760     32.8553E-03     28.7779E-03
            2613            2761     32.7268E-03     28.9167E-03
            2614            2761     32.7268E-03     28.9167E-03
            2596            2761     32.7268E-03     28.9167E-03
            2597            2761     32.7268E-03     28.9167E-03
            2614            2762     31.9648E-03     28.3479E-03
            2597            2762     31.9648E-03     28.3479E-03
            2598            2762     31.9648E-03     28.3479E-03
            2615            2762     31.9648E-03     28.3479E-03
            2598            2763     30.7187E-03     27.2715E-03
            2616            2763     30.7187E-03     27.2715E-03
            2599            2763     30.7187E-03     27.2715E-03
            2615            2763     30.7187E-03     27.2715E-03
            2599            2764     29.2931E-03     25.9965E-03
            2600            2764     29.2931E-03     25.9965E-03
            2616            2764     29.2931E-03     25.9965E-03
            2617            2764     29.2931E-03     25.9965E-03
            2601            2765     27.7768E-03     24.6574E-03
            2618            2765     27.7768E-03     24.6574E-03
            2600            2765     27.7768E-03     24.6574E-03
            2617            2765     27.7768E-03     24.6574E-03
            2618            2766     26.2529E-03     23.3045E-03
            2602            2766     26.2529E-03     23.3045E-03
            2601            2766     26.2529E-03     23.3045E-03
            2619            2766     26.2529E-03     23.3045E-03
            2603            2767     24.7711E-03     22.0591E-03
            2602            2767     24.7711E-03     22.0591E-03
            2620            2767     24.7711E-03     22.0591E-03
            2619            2767     24.7711E-03     22.0591E-03
            2621            2768     23.3622E-03     20.9054E-03
            2603            2768     23.3622E-03     20.9054E-03
            2620            2768     23.3622E-03     20.9054E-03
            2604            2768     23.3622E-03     20.9054E-03
            2622            2769     22.0739E-03     20.0053E-03
            2604            2769     22.0739E-03     20.0053E-03
            2605            2769     22.0739E-03     20.0053E-03
            2621            2769     22.0739E-03     20.0053E-03
            2622            2770     20.9277E-03     19.3022E-03
            2605            2770     20.9277E-03     19.3022E-03
            2623            2770     20.9277E-03     19.3022E-03
            2606            2770     20.9277E-03     19.3022E-03
            2623            2771     19.8663E-03     19.2161E-03
            2624            2771     19.8663E-03     19.2161E-03
            2607            2771     19.8663E-03     19.2161E-03
            2606            2771     19.8663E-03     19.2161E-03
            2625            2772     18.3185E-03     20.6245E-03
            2608            2772     18.3185E-03     20.6245E-03
            2607            2772     18.3185E-03     20.6245E-03
            2624            2772     18.3185E-03     20.6245E-03
            2643            2773     358.861E-06     385.916E-06
            2626            2773     358.861E-06     385.916E-06
            2644            2773     358.861E-06     385.916E-06
            2627            2773     358.861E-06     385.916E-06
            2627            2774     360.251E-06     381.268E-06
            2644            2774     360.251E-06     381.268E-06
            2645            2774     360.251E-06     381.268E-06
            2628            2774     360.251E-06     381.268E-06
            2628            2775     361.624E-06     384.883E-06
            2646            2775     361.624E-06     384.883E-06
            2629            2775     361.624E-06     384.883E-06
            2645            2775     361.624E-06     384.883E-06
            2629            2776     361.483E-06     391.245E-06
            2646            2776     361.483E-06     391.245E-06
            2647            2776     361.483E-06     391.245E-06
            2630            2776     361.483E-06     391.245E-06
            2630            2777     362.346E-06     396.882E-06
            2647            2777     362.346E-06     396.882E-06
            2631            2777     362.346E-06     396.882E-06
            2648            2777     362.346E-06     396.882E-06
            2631            2778     365.268E-06     403.622E-06
            2648            2778     365.268E-06     403.622E-06
            2632            2778     365.268E-06     403.622E-06
            2649            2778     365.268E-06     403.622E-06
            2633            2779     369.176E-06     411.051E-06
            2650            2779     369.176E-06     411.051E-06
            2632            2779     369.176E-06     411.051E-06
            2649            2779     369.176E-06     411.051E-06
            2651            2780     374.722E-06     419.165E-06
            2633            2780     374.722E-06     419.165E-06
            2634            2780     374.722E-06     419.165E-06
            2650            2780     374.722E-06     419.165E-06
            2635            2781     381.434E-06     428.278E-06
            2651            2781     381.434E-06     428.278E-06
            2634            2781     381.434E-06     428.278E-06
            2652            2781     381.434E-06     428.278E-06
            2635            2782     389.799E-06     437.967E-06
            2652            2782     389.799E-06     437.967E-06
            2636            2782     389.799E-06     437.967E-06
            2653            2782     389.799E-06     437.967E-06
            2637            2783     399.422E-06     448.659E-06
            2653            2783     399.422E-06     448.659E-06
            2636            2783     399.422E-06     448.659E-06
            2654            2783     399.422E-06     448.659E-06
            2654            2784     409.339E-06     459.132E-06
            2637            2784     409.339E-06     459.132E-06
            2655            2784     409.339E-06     459.132E-06
            2638            2784     409.339E-06     459.132E-06
            2638            2785     420.404E-06     470.742E-06
            2639            2785     420.404E-06     470.742E-06
            2655            2785     420.404E-06     470.742E-06
            2656            2785     420.404E-06     470.742E-06
            2639            2786     423.162E-06     477.493E-06
            2656            2786     423.162E-06     477.493E-06
            2640            2786     423.162E-06     477.493E-06
            2657            2786     423.162E-06     477.493E-06
            2640            2787     448.531E-06     501.328E-06
            2641            2787     448.531E-06     501.328E-06
            2657            2787     448.531E-06     501.328E-06
            2658            2787     448.531E-06     501.328E-06
            2642            2788     551.659E-06     597.687E-06
            2659            2788     551.659E-06     597.687E-06
            2641            2788     551.659E-06     597.687E-06
            2658            2788     551.659E-06     597.687E-06
            2660            2789     397.815E-06     364.749E-06
            2644            2789     397.815E-06     364.749E-06
            2661            2789     397.815E-06     364.749E-06
            2643            2789     397.815E-06     364.749E-06
            2661            2790     380.439E-06     386.042E-06
            2645            2790     380.439E-06     386.042E-06
            2644            2790     380.439E-06     386.042E-06
            2662            2790     380.439E-06     386.042E-06
            2662            2791     372.969E-06     391.674E-06
            2663            2791     372.969E-06     391.674E-06
            2645            2791     372.969E-06     391.674E-06
            2646            2791     372.969E-06     391.674E-06
            2663            2792     374.443E-06     392.749E-06
            2664            2792     374.443E-06     392.749E-06
            2647            2792     374.443E-06     392.749E-06
            2646            2792     374.443E-06     392.749E-06
            2664            2793     377.499E-06     396.944E-06
            2648            2793     377.499E-06     396.944E-06
            2665            2793     377.499E-06     396.944E-06
            2647            2793     377.499E-06     396.944E-06
            2648            2794     381.262E-06     402.284E-06
            2649            2794     381.262E-06     402.284E-06
            2665            2794     381.262E-06     402.284E-06
            2666            2794     381.262E-06     402.284E-06
            2649            2795     386.435E-06     408.593E-06
            2666            2795     386.435E-06     408.593E-06
            2650            2795     386.435E-06     408.593E-06
            2667            2795     386.435E-06     408.593E-06
            2650            2796     392.563E-06     415.756E-06
            2668            2796     392.563E-06     415.756E-06
            2651            2796     392.563E-06     415.756E-06
            2667            2796     392.563E-06     415.756E-06
            2668            2797     399.887E-06     423.739E-06
            2651            2797     399.887E-06     423.739E-06
            2652            2797     399.887E-06     423.739E-06
            2669            2797     399.887E-06     423.739E-06
            2669            2798     408.545E-06     433.006E-06
            2670            2798     408.545E-06     433.006E-06
            2653            2798     408.545E-06     433.006E-06
            2652            2798     408.545E-06     433.006E-06
            2654            2799     418.940E-06     443.724E-06
            2670            2799     418.940E-06     443.724E-06
            2653            2799     418.940E-06     443.724E-06
            2671            2799     418.940E-06     443.724E-06
            2672            2800     431.982E-06     456.884E-06
            2655            2800     431.982E-06     456.884E-06
            2671            2800     431.982E-06     456.884E-06
            2654            2800     431.982E-06     456.884E-06
            2673            2801     446.533E-06     471.706E-06
            2672            2801     446.533E-06     471.706E-06
            2656            2801     446.533E-06     471.706E-06
            2655            2801     446.533E-06     471.706E-06
            2674            2802     459.325E-06     484.853E-06
            2657            2802     459.325E-06     484.853E-06
            2656            2802     459.325E-06     484.853E-06
            2673            2802     459.325E-06     484.853E-06
            2657            2803     451.036E-06     481.039E-06
            2675            2803     451.036E-06     481.039E-06
            2658            2803     451.036E-06     481.039E-06
            2674            2803     451.036E-06     481.039E-06
            2658            2804     434.000E-06     443.995E-06
            2675            2804     434.000E-06     443.995E-06
            2676            2804     434.000E-06     443.995E-06
            2659            2804     434.000E-06     443.995E-06
            2661            2805     409.425E-06     377.807E-06
            2677            2805     409.425E-06     377.807E-06
            2660            2805     409.425E-06     377.807E-06
            2678            2805     409.425E-06     377.807E-06
            2662            2806     393.771E-06     394.552E-06
            2679            2806     393.771E-06     394.552E-06
            2678            2806     393.771E-06     394.552E-06
            2661            2806     393.771E-06     394.552E-06
            2662            2807     389.325E-06     396.778E-06
            2663            2807     389.325E-06     396.778E-06
            2679            2807     389.325E-06     396.778E-06
            2680            2807     389.325E-06     396.778E-06
            2680            2808     392.618E-06     396.225E-06
            2681            2808     392.618E-06     396.225E-06
            2664            2808     392.618E-06     396.225E-06
            2663            2808     392.618E-06     396.225E-06
            2664            2809     396.809E-06     398.816E-06
            2665            2809     396.809E-06     398.816E-06
            2682            2809     396.809E-06     398.816E-06
            2681            2809     396.809E-06     398.816E-06
            2682            2810     401.615E-06     402.575E-06
            2683            2810     401.615E-06     402.575E-06
            2665            2810     401.615E-06     402.575E-06
            2666            2810     401.615E-06     402.575E-06
            2684            2811     407.338E-06     407.397E-06
            2683            2811     407.338E-06     407.397E-06
            2667            2811     407.338E-06     407.397E-06
            2666            2811     407.338E-06     407.397E-06
            2667            2812     413.692E-06     412.970E-06
            2684            2812     413.692E-06     412.970E-06
            2668            2812     413.692E-06     412.970E-06
            2685            2812     413.692E-06     412.970E-06
            2669            2813     420.874E-06     419.435E-06
            2668            2813     420.874E-06     419.435E-06
            2686            2813     420.874E-06     419.435E-06
            2685            2813     420.874E-06     419.435E-06
            2669            2814     428.913E-06     426.914E-06
            2670            2814     428.913E-06     426.914E-06
            2686            2814     428.913E-06     426.914E-06
            2687            2814     428.913E-06     426.914E-06
            2671            2815     438.412E-06     435.954E-06
            2688            2815     438.412E-06     435.954E-06
            2670            2815     438.412E-06     435.954E-06
            2687            2815     438.412E-06     435.954E-06
            2689            2816     450.207E-06     447.481E-06
            2688            2816     450.207E-06     447.481E-06
            2672            2816     450.207E-06     447.481E-06
            2671            2816     450.207E-06     447.481E-06
            2689            2817     462.200E-06     458.616E-06
            2690            2817     462.200E-06     458.616E-06
            2672            2817     462.200E-06     458.616E-06
            2673            2817     462.200E-06     458.616E-06
            2673            2818     472.661E-06     467.426E-06
            2691            2818     472.661E-06     467.426E-06
            2690            2818     472.661E-06     467.426E-06
            2674            2818     472.661E-06     467.426E-06
            2692            2819     419.677E-06     426.746E-06
            2674            2819     419.677E-06     426.746E-06
            2691            2819     419.677E-06     426.746E-06
            2675            2819     419.677E-06     426.746E-06
            2692            2820     278.177E-06     298.908E-06
            2693            2820     278.177E-06     298.908E-06
            2675            2820     278.177E-06     298.908E-06
            2676            2820     278.177E-06     298.908E-06
            2678            2821     394.228E-06     418.909E-06
            2694            2821     394.228E-06     418.909E-06
            2677            2821     394.228E-06     418.909E-06
            2695            2821     394.228E-06     418.909E-06
            2678            2822     402.648E-06     404.311E-06
            2696            2822     402.648E-06     404.311E-06
            2679            2822     402.648E-06     404.311E-06
            2695            2822     402.648E-06     404.311E-06
            2697            2823     410.537E-06     400.506E-06
            2679            2823     410.537E-06     400.506E-06
            2696            2823     410.537E-06     400.506E-06
            2680            2823     410.537E-06     400.506E-06
            2697            2824     415.361E-06     401.651E-06
            2681            2824     415.361E-06     401.651E-06
            2698            2824     415.361E-06     401.651E-06
            2680            2824     415.361E-06     401.651E-06
            2698            2825     420.069E-06     402.480E-06
            2699            2825     420.069E-06     402.480E-06
            2682            2825     420.069E-06     402.480E-06
            2681            2825     420.069E-06     402.480E-06
            2699            2826     425.886E-06     404.722E-06
            2683            2826     425.886E-06     404.722E-06
            2682            2826     425.886E-06     404.722E-06
            2700            2826     425.886E-06     404.722E-06
            2683            2827     431.713E-06     407.696E-06
            2684            2827     431.713E-06     407.696E-06
            2700            2827     431.713E-06     407.696E-06
            2701            2827     431.713E-06     407.696E-06
            2701            2828     438.120E-06     411.432E-06
            2685            2828     438.120E-06     411.432E-06
            2684            2828     438.120E-06     411.432E-06
            2702            2828     438.120E-06     411.432E-06
            2703            2829     444.586E-06     415.917E-06
            2702            2829     444.586E-06     415.917E-06
            2686            2829     444.586E-06     415.917E-06
            2685            2829     444.586E-06     415.917E-06
            2704            2830     451.355E-06     420.849E-06
            2687            2830     451.355E-06     420.849E-06
            2686            2830     451.355E-06     420.849E-06
            2703            2830     451.355E-06     420.849E-06
            2704            2831     458.063E-06     425.987E-06
            2688            2831     458.063E-06     425.987E-06
            2705            2831     458.063E-06     425.987E-06
            2687            2831     458.063E-06     425.987E-06
            2688            2832     463.341E-06     430.178E-06
            2705            2832     463.341E-06     430.178E-06
            2689            2832     463.341E-06     430.178E-06
            2706            2832     463.341E-06     430.178E-06
            2690            2833     465.511E-06     430.467E-06
            2689            2833     465.511E-06     430.467E-06
            2706            2833     465.511E-06     430.467E-06
            2707            2833     465.511E-06     430.467E-06
            2691            2834     447.284E-06     412.027E-06
            2690            2834     447.284E-06     412.027E-06
            2707            2834     447.284E-06     412.027E-06
            2708            2834     447.284E-06     412.027E-06
            2708            2835     385.897E-06     350.202E-06
            2691            2835     385.897E-06     350.202E-06
            2709            2835     385.897E-06     350.202E-06
            2692            2835     385.897E-06     350.202E-06
            2709            2836     218.877E-06     235.371E-06
            2692            2836     218.877E-06     235.371E-06
            2693            2836     218.877E-06     235.371E-06
            2710            2836     218.877E-06     235.371E-06
            2711            2837     198.123E-03     210.018E-03
            2712            2837     198.123E-03     210.018E-03
            2729            2837     198.123E-03     210.018E-03
            2728            2837     198.123E-03     210.018E-03
            2729            2838     176.752E-03     186.651E-03
            2713            2838     176.752E-03     186.651E-03
            2730            2838     176.752E-03     186.651E-03
            2712            2838     176.752E-03     186.651E-03
            2730            2839     164.672E-03     174.656E-03
            2731            2839     164.672E-03     174.656E-03
            2714            2839     164.672E-03     174.656E-03
            2713            2839     164.672E-03     174.656E-03
            2731            2840     153.360E-03     163.639E-03
            2732            2840     153.360E-03     163.639E-03
            2715            2840     153.360E-03     163.639E-03
            2714            2840     153.360E-03     163.639E-03
            2732            2841     142.439E-03     152.615E-03
            2733            2841     142.439E-03     152.615E-03
            2715            2841     142.439E-03     152.615E-03
            2716            2841     142.439E-03     152.615E-03
            2734            2842     131.176E-03     141.397E-03
            2717            2842     131.176E-03     141.397E-03
            2733            2842     131.176E-03     141.397E-03
            2716            2842     131.176E-03     141.397E-03
            2735            2843     119.949E-03     130.087E-03
            2717            2843     119.949E-03     130.087E-03
            2718            2843     119.949E-03     130.087E-03
            2734            2843     119.949E-03     130.087E-03
            2719            2844     108.593E-03     118.738E-03
            2736            2844     108.593E-03     118.738E-03
            2735            2844     108.593E-03     118.738E-03
            2718            2844     108.593E-03     118.738E-03
            2719            2845     97.2775E-03     107.354E-03
            2737            2845     97.2775E-03     107.354E-03
            2736            2845     97.2775E-03     107.354E-03
            2720            2845     97.2775E-03     107.354E-03
            2737            2846     85.9089E-03     95.9779E-03
            2738            2846     85.9089E-03     95.9779E-03
            2720            2846     85.9089E-03     95.9779E-03
            2721            2846     85.9089E-03     95.9779E-03
            2738            2847     74.5592E-03     84.5743E-03
            2739            2847     74.5592E-03     84.5743E-03
            2721            2847     74.5592E-03     84.5743E-03
            2722            2847     74.5592E-03     84.5743E-03
            2722            2848     63.1958E-03     73.1906E-03
            2723            2848     63.1958E-03     73.1906E-03
            2740            2848     63.1958E-03     73.1906E-03
            2739            2848     63.1958E-03     73.1906E-03
            2723            2849     51.7747E-03     61.8084E-03
            2740            2849     51.7747E-03     61.8084E-03
            2741            2849     51.7747E-03     61.8084E-03
            2724            2849     51.7747E-03     61.8084E-03
            2725            2850     40.5313E-03     50.4873E-03
            2741            2850     40.5313E-03     50.4873E-03
            2742            2850     40.5313E-03     50.4873E-03
            2724            2850     40.5313E-03     50.4873E-03
            2742            2851     29.5458E-03     39.0277E-03
            2743            2851     29.5458E-03     39.0277E-03
            2726            2851     29.5458E-03     39.0277E-03
            2725            2851     29.5458E-03     39.0277E-03
            2743            2852     20.1133E-03     29.0705E-03
            2726            2852     20.1133E-03     29.0705E-03
            2727            2852     20.1133E-03     29.0705E-03
            2744            2852     20.1133E-03     29.0705E-03
            2728            2853     192.847E-03     202.841E-03
            2745            2853     192.847E-03     202.841E-03
            2746            2853     192.847E-03     202.841E-03
            2729            2853     192.847E-03     202.841E-03
            2747            2854     165.041E-03     177.534E-03
            2729            2854     165.041E-03     177.534E-03
            2730            2854     165.041E-03     177.534E-03
            2746            2854     165.041E-03     177.534E-03
            2730            2855     152.077E-03     164.331E-03
            2748            2855     152.077E-03     164.331E-03
            2731            2855     152.077E-03     164.331E-03
            2747            2855     152.077E-03     164.331E-03
            2732            2856     142.001E-03     154.065E-03
            2748            2856     142.001E-03     154.065E-03
            2731            2856     142.001E-03     154.065E-03
            2749            2856     142.001E-03     154.065E-03
            2733            2857     131.496E-03     143.630E-03
            2749            2857     131.496E-03     143.630E-03
            2732            2857     131.496E-03     143.630E-03
            2750            2857     131.496E-03     143.630E-03
            2734            2858     121.099E-03     133.187E-03
            2750            2858     121.099E-03     133.187E-03
            2751            2858     121.099E-03     133.187E-03
            2733            2858     121.099E-03     133.187E-03
            2752            2859     110.535E-03     122.557E-03
            2751            2859     110.535E-03     122.557E-03
            2735            2859     110.535E-03     122.557E-03
            2734            2859     110.535E-03     122.557E-03
            2735            2860     99.9846E-03     111.990E-03
            2752            2860     99.9846E-03     111.990E-03
            2736            2860     99.9846E-03     111.990E-03
            2753            2860     99.9846E-03     111.990E-03
            2736            2861     89.4196E-03     101.352E-03
            2737            2861     89.4196E-03     101.352E-03
            2753            2861     89.4196E-03     101.352E-03
            2754            2861     89.4196E-03     101.352E-03
            2737            2862     78.8500E-03     90.7511E-03
            2738            2862     78.8500E-03     90.7511E-03
            2755            2862     78.8500E-03     90.7511E-03
            2754            2862     78.8500E-03     90.7511E-03
            2756            2863     68.2967E-03     80.1254E-03
            2738            2863     68.2967E-03     80.1254E-03
            2755            2863     68.2967E-03     80.1254E-03
            2739            2863     68.2967E-03     80.1254E-03
            2740            2864     57.7091E-03     69.5182E-03
            2739            2864     57.7091E-03     69.5182E-03
            2757            2864     57.7091E-03     69.5182E-03
            2756            2864     57.7091E-03     69.5182E-03
            2758            2865     47.1857E-03     58.8741E-03
            2740            2865     47.1857E-03     58.8741E-03
            2741            2865     47.1857E-03     58.8741E-03
            2757            2865     47.1857E-03     58.8741E-03
            2758            2866     36.6794E-03     48.2754E-03
            2759            2866     36.6794E-03     48.2754E-03
            2741            2866     36.6794E-03     48.2754E-03
            2742            2866     36.6794E-03     48.2754E-03
            2760            2867     26.6026E-03     38.1834E-03
            2759            2867     26.6026E-03     38.1834E-03
            2742            2867     26.6026E-03     38.1834E-03
            2743            2867     26.6026E-03     38.1834E-03
            2743            2868     20.4789E-03     29.0871E-03
            2744            2868     20.4789E-03     29.0871E-03
            2760            2868     20.4789E-03     29.0871E-03
            2761            2868     20.4789E-03     29.0871E-03
            2746            2869     184.146E-03     186.024E-03
            2762            2869     184.146E-03     186.024E-03
            2763            2869     184.146E-03     186.024E-03
            2745            2869     184.146E-03     186.024E-03
            2747            2870     171.076E-03     174.960E-03
            2763            2870     171.076E-03     174.960E-03
            2764            2870     171.076E-03     174.960E-03
            2746            2870     171.076E-03     174.960E-03
            2765            2871     158.754E-03     162.435E-03
            2748            2871     158.754E-03     162.435E-03
            2764            2871     158.754E-03     162.435E-03
            2747            2871     158.754E-03     162.435E-03
            2765            2872     147.767E-03     151.242E-03
            2749            2872     147.767E-03     151.242E-03
            2748            2872     147.767E-03     151.242E-03
            2766            2872     147.767E-03     151.242E-03
            2767            2873     136.927E-03     140.334E-03
            2750            2873     136.927E-03     140.334E-03
            2749            2873     136.927E-03     140.334E-03
            2766            2873     136.927E-03     140.334E-03
            2751            2874     126.216E-03     129.604E-03
            2767            2874     126.216E-03     129.604E-03
            2750            2874     126.216E-03     129.604E-03
            2768            2874     126.216E-03     129.604E-03
            2752            2875     115.583E-03     119.005E-03
            2769            2875     115.583E-03     119.005E-03
            2751            2875     115.583E-03     119.005E-03
            2768            2875     115.583E-03     119.005E-03
            2753            2876     105.010E-03     108.408E-03
            2752            2876     105.010E-03     108.408E-03
            2770            2876     105.010E-03     108.408E-03
            2769            2876     105.010E-03     108.408E-03
            2753            2877     94.4588E-03     97.8752E-03
            2770            2877     94.4588E-03     97.8752E-03
            2771            2877     94.4588E-03     97.8752E-03
            2754            2877     94.4588E-03     97.8752E-03
            2755            2878     83.9571E-03     87.3527E-03
            2771            2878     83.9571E-03     87.3527E-03
            2754            2878     83.9571E-03     87.3527E-03
            2772            2878     83.9571E-03     87.3527E-03
            2772            2879     73.4905E-03     76.8930E-03
            2755            2879     73.4905E-03     76.8930E-03
            2773            2879     73.4905E-03     76.8930E-03
            2756            2879     73.4905E-03     76.8930E-03
            2756            2880     63.0966E-03     66.4612E-03
            2773            2880     63.0966E-03     66.4612E-03
            2757            2880     63.0966E-03     66.4612E-03
            2774            2880     63.0966E-03     66.4612E-03
            2757            2881     52.8696E-03     56.1012E-03
            2774            2881     52.8696E-03     56.1012E-03
            2775            2881     52.8696E-03     56.1012E-03
            2758            2881     52.8696E-03     56.1012E-03
            2759            2882     42.6560E-03     45.8430E-03
            2758            2882     42.6560E-03     45.8430E-03
            2775            2882     42.6560E-03     45.8430E-03
            2776            2882     42.6560E-03     45.8430E-03
            2759            2883     33.0747E-03     36.7440E-03
            2777            2883     33.0747E-03     36.7440E-03
            2760            2883     33.0747E-03     36.7440E-03
            2776            2883     33.0747E-03     36.7440E-03
            2778            2884     26.7662E-03     29.3802E-03
            2761            2884     26.7662E-03     29.3802E-03
            2760            2884     26.7662E-03     29.3802E-03
            2777            2884     26.7662E-03     29.3802E-03
            2762            2885     165.999E-03     162.501E-03
            2763            2885     165.999E-03     162.501E-03
            2780            2885     165.999E-03     162.501E-03
            2779            2885     165.999E-03     162.501E-03
            2780            2886     169.810E-03     164.111E-03
            2763            2886     169.810E-03     164.111E-03
            2781            2886     169.810E-03     164.111E-03
            2764            2886     169.810E-03     164.111E-03
            2782            2887     162.023E-03     156.523E-03
            2764            2887     162.023E-03     156.523E-03
            2781            2887     162.023E-03     156.523E-03
            2765            2887     162.023E-03     156.523E-03
            2766            2888     151.421E-03     146.211E-03
            2765            2888     151.421E-03     146.211E-03
            2782            2888     151.421E-03     146.211E-03
            2783            2888     151.421E-03     146.211E-03
            2783            2889     141.196E-03     135.900E-03
            2766            2889     141.196E-03     135.900E-03
            2784            2889     141.196E-03     135.900E-03
            2767            2889     141.196E-03     135.900E-03
            2785            2890     130.752E-03     125.600E-03
            2784            2890     130.752E-03     125.600E-03
            2767            2890     130.752E-03     125.600E-03
            2768            2890     130.752E-03     125.600E-03
            2769            2891     120.448E-03     115.316E-03
            2785            2891     120.448E-03     115.316E-03
            2768            2891     120.448E-03     115.316E-03
            2786            2891     120.448E-03     115.316E-03
            2787            2892     110.044E-03     105.005E-03
            2786            2892     110.044E-03     105.005E-03
            2769            2892     110.044E-03     105.005E-03
            2770            2892     110.044E-03     105.005E-03
            2770            2893     99.6867E-03     94.6967E-03
            2788            2893     99.6867E-03     94.6967E-03
            2771            2893     99.6867E-03     94.6967E-03
            2787            2893     99.6867E-03     94.6967E-03
            2789            2894     89.3276E-03     84.4352E-03
            2788            2894     89.3276E-03     84.4352E-03
            2771            2894     89.3276E-03     84.4352E-03
            2772            2894     89.3276E-03     84.4352E-03
            2790            2895     79.0360E-03     74.2316E-03
            2773            2895     79.0360E-03     74.2316E-03
            2789            2895     79.0360E-03     74.2316E-03
            2772            2895     79.0360E-03     74.2316E-03
            2774            2896     68.8764E-03     64.1753E-03
            2773            2896     68.8764E-03     64.1753E-03
            2790            2896     68.8764E-03     64.1753E-03
            2791            2896     68.8764E-03     64.1753E-03
            2792            2897     58.8495E-03     54.3462E-03
            2774            2897     58.8495E-03     54.3462E-03
            2791            2897     58.8495E-03     54.3462E-03
            2775            2897     58.8495E-03     54.3462E-03
            2792            2898     49.2074E-03     44.9564E-03
            2775            2898     49.2074E-03     44.9564E-03
            2793            2898     49.2074E-03     44.9564E-03
            2776            2898     49.2074E-03     44.9564E-03
            2793            2899     40.1826E-03     36.6304E-03
            2777            2899     40.1826E-03     36.6304E-03
            2794            2899     40.1826E-03     36.6304E-03
            2776            2899     40.1826E-03     36.6304E-03
            2794            2900     31.9712E-03     32.0576E-03
            2795            2900     31.9712E-03     32.0576E-03
            2777            2900     31.9712E-03     32.0576E-03
            2778            2900     31.9712E-03     32.0576E-03
            2802            2901     140.843E-03     140.898E-03
            2796            2901     140.843E-03     140.898E-03
            2797            2901     140.843E-03     140.898E-03
            2801            2901     140.843E-03     140.898E-03
            2803            2902     185.792E-03     184.583E-03
            2798            2902     185.792E-03     184.583E-03
            2802            2902     185.792E-03     184.583E-03
            2797            2902     185.792E-03     184.583E-03
            2803            2903     230.232E-03     227.396E-03
            2804            2903     230.232E-03     227.396E-03
            2799            2903     230.232E-03     227.396E-03
            2798            2903     230.232E-03     227.396E-03
            2799            2904     261.344E-03     251.679E-03
            2804            2904     261.344E-03     251.679E-03
            2805            2904     261.344E-03     251.679E-03
            2800            2904     261.344E-03     251.679E-03
            2806            2905     139.213E-03     139.217E-03
            2802            2905     139.213E-03     139.217E-03
            2801            2905     139.213E-03     139.217E-03
            2807            2905     139.213E-03     139.217E-03
            2803            2906     186.335E-03     186.674E-03
            2802            2906     186.335E-03     186.674E-03
            2807            2906     186.335E-03     186.674E-03
            2808            2906     186.335E-03     186.674E-03
            2804            2907     222.714E-03     228.261E-03
            2803            2907     222.714E-03     228.261E-03
            2808            2907     222.714E-03     228.261E-03
            2809            2907     222.714E-03     228.261E-03
            2805            2908     244.652E-03     250.773E-03
            2809            2908     244.652E-03     250.773E-03
            2804            2908     244.652E-03     250.773E-03
            2810            2908     244.652E-03     250.773E-03
            2812            2909     136.040E-03     140.255E-03
            2811            2909     136.040E-03     140.255E-03
            2807            2909     136.040E-03     140.255E-03
            2806            2909     136.040E-03     140.255E-03
            2808            2910     186.455E-03     186.688E-03
            2807            2910     186.455E-03     186.688E-03
            2812            2910     186.455E-03     186.688E-03
            2813            2910     186.455E-03     186.688E-03
            2814            2911     223.634E-03     225.259E-03
            2813            2911     223.634E-03     225.259E-03
            2809            2911     223.634E-03     225.259E-03
            2808            2911     223.634E-03     225.259E-03
            2810            2912     243.902E-03     246.127E-03
            2815            2912     243.902E-03     246.127E-03
            2809            2912     243.902E-03     246.127E-03
            2814            2912     243.902E-03     246.127E-03
            2816            2913     133.078E-03     129.175E-03
            2817            2913     133.078E-03     129.175E-03
            2811            2913     133.078E-03     129.175E-03
            2812            2913     133.078E-03     129.175E-03
            2813            2914     186.067E-03     174.684E-03
            2812            2914     186.067E-03     174.684E-03
            2818            2914     186.067E-03     174.684E-03
            2817            2914     186.067E-03     174.684E-03
            2814            2915     227.421E-03     216.628E-03
            2819            2915     227.421E-03     216.628E-03
            2818            2915     227.421E-03     216.628E-03
            2813            2915     227.421E-03     216.628E-03
            2814            2916     247.516E-03     243.718E-03
            2820            2916     247.516E-03     243.718E-03
            2819            2916     247.516E-03     243.718E-03
            2815            2916     247.516E-03     243.718E-03
            2837            2925     139.535E-03     141.963E-03
            2836            2925     139.535E-03     141.963E-03
            2842            2925     139.535E-03     141.963E-03
            2841            2925     139.535E-03     141.963E-03
            2843            2926     133.894E-03     135.868E-03
            2838            2926     133.894E-03     135.868E-03
            2842            2926     133.894E-03     135.868E-03
            2837            2926     133.894E-03     135.868E-03
            2838            2927     126.447E-03     127.353E-03
            2839            2927     126.447E-03     127.353E-03
            2844            2927     126.447E-03     127.353E-03
            2843            2927     126.447E-03     127.353E-03
            2845            2928     121.353E-03     120.976E-03
            2844            2928     121.353E-03     120.976E-03
            2839            2928     121.353E-03     120.976E-03
            2840            2928     121.353E-03     120.976E-03
            2841            2929     138.635E-03     148.985E-03
            2842            2929     138.635E-03     148.985E-03
            2847            2929     138.635E-03     148.985E-03
            2846            2929     138.635E-03     148.985E-03
            2847            2930     130.615E-03     140.275E-03
            2843            2930     130.615E-03     140.275E-03
            2842            2930     130.615E-03     140.275E-03
            2848            2930     130.615E-03     140.275E-03
            2843            2931     128.292E-03     131.161E-03
            2844            2931     128.292E-03     131.161E-03
            2848            2931     128.292E-03     131.161E-03
            2849            2931     128.292E-03     131.161E-03
            2844            2932     127.961E-03     126.979E-03
            2845            2932     127.961E-03     126.979E-03
            2850            2932     127.961E-03     126.979E-03
            2849            2932     127.961E-03     126.979E-03
            2847            2933     151.194E-03     150.842E-03
            2846            2933     151.194E-03     150.842E-03
            2851            2933     151.194E-03     150.842E-03
            2852            2933     151.194E-03     150.842E-03
            2853            2934     135.395E-03     133.609E-03
            2848            2934     135.395E-03     133.609E-03
            2847            2934     135.395E-03     133.609E-03
            2852            2934     135.395E-03     133.609E-03
            2854            2935     131.260E-03     126.732E-03
            2849            2935     131.260E-03     126.732E-03
            2848            2935     131.260E-03     126.732E-03
            2853            2935     131.260E-03     126.732E-03
            2850            2936     128.665E-03     125.298E-03
            2849            2936     128.665E-03     125.298E-03
            2855            2936     128.665E-03     125.298E-03
            2854            2936     128.665E-03     125.298E-03
            2852            2937     124.809E-03     120.230E-03
            2851            2937     124.809E-03     120.230E-03
            2857            2937     124.809E-03     120.230E-03
            2856            2937     124.809E-03     120.230E-03
            2852            2938     121.643E-03     116.116E-03
            2858            2938     121.643E-03     116.116E-03
            2857            2938     121.643E-03     116.116E-03
            2853            2938     121.643E-03     116.116E-03
            2853            2939     124.443E-03     118.684E-03
            2858            2939     124.443E-03     118.684E-03
            2859            2939     124.443E-03     118.684E-03
            2854            2939     124.443E-03     118.684E-03
            2855            2940     126.548E-03     124.896E-03
            2854            2940     126.548E-03     124.896E-03
            2860            2940     126.548E-03     124.896E-03
            2859            2940     126.548E-03     124.896E-03
            2857            2941     85.1596E-03     94.6942E-03
            2856            2941     85.1596E-03     94.6942E-03
            2862            2941     85.1596E-03     94.6942E-03
            2861            2941     85.1596E-03     94.6942E-03
            2863            2942     92.3653E-03     100.828E-03
            2857            2942     92.3653E-03     100.828E-03
            2858            2942     92.3653E-03     100.828E-03
            2862            2942     92.3653E-03     100.828E-03
            2863            2943     108.550E-03     112.467E-03
            2859            2943     108.550E-03     112.467E-03
            2858            2943     108.550E-03     112.467E-03
            2864            2943     108.550E-03     112.467E-03
            2860            2944     120.383E-03     121.943E-03
            2865            2944     120.383E-03     121.943E-03
            2859            2944     120.383E-03     121.943E-03
            2864            2944     120.383E-03     121.943E-03
            2861            2945     66.3078E-03     61.0203E-03
            2862            2945     66.3078E-03     61.0203E-03
            2867            2945     66.3078E-03     61.0203E-03
            2866            2945     66.3078E-03     61.0203E-03
            2867            2946     82.7472E-03     79.0529E-03
            2868            2946     82.7472E-03     79.0529E-03
            2862            2946     82.7472E-03     79.0529E-03
            2863            2946     82.7472E-03     79.0529E-03
            2868            2947     104.040E-03     103.050E-03
            2863            2947     104.040E-03     103.050E-03
            2864            2947     104.040E-03     103.050E-03
            2869            2947     104.040E-03     103.050E-03
            2864            2948     119.164E-03     118.635E-03
            2869            2948     119.164E-03     118.635E-03
            2870            2948     119.164E-03     118.635E-03
            2865            2948     119.164E-03     118.635E-03
            2872            2949     40.7487E-03     42.8764E-03
            2867            2949     40.7487E-03     42.8764E-03
            2871            2949     40.7487E-03     42.8764E-03
            2866            2949     40.7487E-03     42.8764E-03
            2868            2950     70.5425E-03     72.6543E-03
            2872            2950     70.5425E-03     72.6543E-03
            2873            2950     70.5425E-03     72.6543E-03
            2867            2950     70.5425E-03     72.6543E-03
            2869            2951     97.4291E-03     99.5907E-03
            2873            2951     97.4291E-03     99.5907E-03
            2874            2951     97.4291E-03     99.5907E-03
            2868            2951     97.4291E-03     99.5907E-03
            2870            2952     117.363E-03     117.074E-03
            2869            2952     117.363E-03     117.074E-03
            2874            2952     117.363E-03     117.074E-03
            2875            2952     117.363E-03     117.074E-03
            2872            2953     33.7019E-03     39.8697E-03
            2871            2953     33.7019E-03     39.8697E-03
            2877            2953     33.7019E-03     39.8697E-03
            2876            2953     33.7019E-03     39.8697E-03
            2872            2954     66.1042E-03     69.0543E-03
            2877            2954     66.1042E-03     69.0543E-03
            2873            2954     66.1042E-03     69.0543E-03
            2878            2954     66.1042E-03     69.0543E-03
            2873            2955     93.9235E-03     95.7845E-03
            2874            2955     93.9235E-03     95.7845E-03
            2879            2955     93.9235E-03     95.7845E-03
            2878            2955     93.9235E-03     95.7845E-03
            2875            2956     116.614E-03     115.351E-03
            2874            2956     116.614E-03     115.351E-03
            2879            2956     116.614E-03     115.351E-03
            2880            2956     116.614E-03     115.351E-03
            2882            2957     33.9204E-03     37.4369E-03
            2881            2957     33.9204E-03     37.4369E-03
            2876            2957     33.9204E-03     37.4369E-03
            2877            2957     33.9204E-03     37.4369E-03
            2877            2958     56.7758E-03     57.7737E-03
            2882            2958     56.7758E-03     57.7737E-03
            2878            2958     56.7758E-03     57.7737E-03
            2883            2958     56.7758E-03     57.7737E-03
            2884            2959     77.9068E-03     78.2961E-03
            2883            2959     77.9068E-03     78.2961E-03
            2878            2959     77.9068E-03     78.2961E-03
            2879            2959     77.9068E-03     78.2961E-03
            2880            2960     94.1012E-03     93.5595E-03
            2885            2960     94.1012E-03     93.5595E-03
            2884            2960     94.1012E-03     93.5595E-03
            2879            2960     94.1012E-03     93.5595E-03
            2916            2977     689.866E-06     703.676E-06
            2917            2977     689.866E-06     703.676E-06
            2921            2977     689.866E-06     703.676E-06
            2922            2977     689.866E-06     703.676E-06
            2922            2978     603.267E-06     602.570E-06
            2918            2978     603.267E-06     602.570E-06
            2917            2978     603.267E-06     602.570E-06
            2923            2978     603.267E-06     602.570E-06
            2924            2979     668.345E-06     648.635E-06
            2918            2979     668.345E-06     648.635E-06
            2923            2979     668.345E-06     648.635E-06
            2919            2979     668.345E-06     648.635E-06
            2924            2980     730.873E-06     710.785E-06
            2925            2980     730.873E-06     710.785E-06
            2920            2980     730.873E-06     710.785E-06
            2919            2980     730.873E-06     710.785E-06
            2927            2981     502.749E-06     459.162E-06
            2926            2981     502.749E-06     459.162E-06
            2921            2981     502.749E-06     459.162E-06
            2922            2981     502.749E-06     459.162E-06
            2922            2982     521.830E-06     475.411E-06
            2928            2982     521.830E-06     475.411E-06
            2927            2982     521.830E-06     475.411E-06
            2923            2982     521.830E-06     475.411E-06
            2929            2983     633.403E-06     606.482E-06
            2923            2983     633.403E-06     606.482E-06
            2924            2983     633.403E-06     606.482E-06
            2928            2983     633.403E-06     606.482E-06
            2925            2984     719.167E-06     708.272E-06
            2930            2984     719.167E-06     708.272E-06
            2924            2984     719.167E-06     708.272E-06
            2929            2984     719.167E-06     708.272E-06
            2926            2985     268.816E-06     309.250E-06
            2931            2985     268.816E-06     309.250E-06
            2927            2985     268.816E-06     309.250E-06
            2932            2985     268.816E-06     309.250E-06
            2927            2986     369.721E-06     403.712E-06
            2932            2986     369.721E-06     403.712E-06
            2933            2986     369.721E-06     403.712E-06
            2928            2986     369.721E-06     403.712E-06
            2928            2987     567.648E-06     583.994E-06
            2934            2987     567.648E-06     583.994E-06
            2933            2987     567.648E-06     583.994E-06
            2929            2987     567.648E-06     583.994E-06
            2935            2988     699.217E-06     696.052E-06
            2934            2988     699.217E-06     696.052E-06
            2930            2988     699.217E-06     696.052E-06
            2929            2988     699.217E-06     696.052E-06
            2936            2989     231.402E-06     265.435E-06
            2937            2989     231.402E-06     265.435E-06
            2932            2989     231.402E-06     265.435E-06
            2931            2989     231.402E-06     265.435E-06
            2938            2990     341.526E-06     350.865E-06
            2937            2990     341.526E-06     350.865E-06
            2933            2990     341.526E-06     350.865E-06
            2932            2990     341.526E-06     350.865E-06
            2938            2991     556.866E-06     551.564E-06
            2939            2991     556.866E-06     551.564E-06
            2933            2991     556.866E-06     551.564E-06
            2934            2991     556.866E-06     551.564E-06
            2935            2992     701.609E-06     685.576E-06
            2939            2992     701.609E-06     685.576E-06
            2940            2992     701.609E-06     685.576E-06
            2934            2992     701.609E-06     685.576E-06
            2971            3011     551.659E-06     597.687E-06
            2988            3011     551.659E-06     597.687E-06
            2989            3011     551.659E-06     597.687E-06
            2972            3011     551.659E-06     597.687E-06
            2989            3012     448.531E-06     501.328E-06
            2990            3012     448.531E-06     501.328E-06
            2972            3012     448.531E-06     501.328E-06
            2973            3012     448.531E-06     501.328E-06
            2973            3013     423.162E-06     477.493E-06
            2990            3013     423.162E-06     477.493E-06
            2991            3013     423.162E-06     477.493E-06
            2974            3013     423.162E-06     477.493E-06
            2992            3014     420.404E-06     470.742E-06
            2974            3014     420.404E-06     470.742E-06
            2975            3014     420.404E-06     470.742E-06
            2991            3014     420.404E-06     470.742E-06
            2993            3015     409.339E-06     459.132E-06
            2975            3015     409.339E-06     459.132E-06
            2992            3015     409.339E-06     459.132E-06
            2976            3015     409.339E-06     459.132E-06
            2993            3016     399.422E-06     448.659E-06
            2976            3016     399.422E-06     448.659E-06
            2977            3016     399.422E-06     448.659E-06
            2994            3016     399.422E-06     448.659E-06
            2995            3017     389.799E-06     437.967E-06
            2978            3017     389.799E-06     437.967E-06
            2994            3017     389.799E-06     437.967E-06
            2977            3017     389.799E-06     437.967E-06
            2995            3018     381.434E-06     428.278E-06
            2996            3018     381.434E-06     428.278E-06
            2978            3018     381.434E-06     428.278E-06
            2979            3018     381.434E-06     428.278E-06
            2980            3019     374.722E-06     419.165E-06
            2997            3019     374.722E-06     419.165E-06
            2996            3019     374.722E-06     419.165E-06
            2979            3019     374.722E-06     419.165E-06
            2998            3020     369.176E-06     411.051E-06
            2997            3020     369.176E-06     411.051E-06
            2981            3020     369.176E-06     411.051E-06
            2980            3020     369.176E-06     411.051E-06
            2981            3021     365.268E-06     403.622E-06
            2998            3021     365.268E-06     403.622E-06
            2999            3021     365.268E-06     403.622E-06
            2982            3021     365.268E-06     403.622E-06
            3000            3022     362.346E-06     396.882E-06
            2982            3022     362.346E-06     396.882E-06
            2999            3022     362.346E-06     396.882E-06
            2983            3022     362.346E-06     396.882E-06
            2983            3023     361.483E-06     391.245E-06
            2984            3023     361.483E-06     391.245E-06
            3000            3023     361.483E-06     391.245E-06
            3001            3023     361.483E-06     391.245E-06
            3002            3024     361.624E-06     384.883E-06
            2984            3024     361.624E-06     384.883E-06
            2985            3024     361.624E-06     384.883E-06
            3001            3024     361.624E-06     384.883E-06
            2985            3025     360.251E-06     381.268E-06
            3003            3025     360.251E-06     381.268E-06
            3002            3025     360.251E-06     381.268E-06
            2986            3025     360.251E-06     381.268E-06
            3003            3026     358.861E-06     385.916E-06
            2987            3026     358.861E-06     385.916E-06
            2986            3026     358.861E-06     385.916E-06
            3004            3026     358.861E-06     385.916E-06
            2989            3027     434.000E-06     443.995E-06
            2988            3027     434.000E-06     443.995E-06
            3006            3027     434.000E-06     443.995E-06
            3005            3027     434.000E-06     443.995E-06
            2989            3028     451.036E-06     481.039E-06
            2990            3028     451.036E-06     481.039E-06
            3006            3028     451.036E-06     481.039E-06
            3007            3028     451.036E-06     481.039E-06
            2991            3029     459.325E-06     484.853E-06
            3008            3029     459.325E-06     484.853E-06
            2990            3029     459.325E-06     484.853E-06
            3007            3029     459.325E-06     484.853E-06
            3009            3030     446.533E-06     471.706E-06
            2992            3030     446.533E-06     471.706E-06
            3008            3030     446.533E-06     471.706E-06
            2991            3030     446.533E-06     471.706E-06
            2992            3031     431.982E-06     456.884E-06
            2993            3031     431.982E-06     456.884E-06
            3010            3031     431.982E-06     456.884E-06
            3009            3031     431.982E-06     456.884E-06
            3011            3032     418.940E-06     443.724E-06
            2994            3032     418.940E-06     443.724E-06
            2993            3032     418.940E-06     443.724E-06
            3010            3032     418.940E-06     443.724E-06
            2995            3033     408.545E-06     433.006E-06
            2994            3033     408.545E-06     433.006E-06
            3011            3033     408.545E-06     433.006E-06
            3012            3033     408.545E-06     433.006E-06
            2995            3034     399.887E-06     423.739E-06
            2996            3034     399.887E-06     423.739E-06
            3012            3034     399.887E-06     423.739E-06
            3013            3034     399.887E-06     423.739E-06
            2997            3035     392.563E-06     415.756E-06
            3013            3035     392.563E-06     415.756E-06
            3014            3035     392.563E-06     415.756E-06
            2996            3035     392.563E-06     415.756E-06
            3015            3036     386.435E-06     408.593E-06
            2998            3036     386.435E-06     408.593E-06
            3014            3036     386.435E-06     408.593E-06
            2997            3036     386.435E-06     408.593E-06
            2999            3037     381.262E-06     402.284E-06
            2998            3037     381.262E-06     402.284E-06
            3015            3037     381.262E-06     402.284E-06
            3016            3037     381.262E-06     402.284E-06
            3000            3038     377.499E-06     396.944E-06
            3017            3038     377.499E-06     396.944E-06
            2999            3038     377.499E-06     396.944E-06
            3016            3038     377.499E-06     396.944E-06
            3001            3039     374.443E-06     392.749E-06
            3000            3039     374.443E-06     392.749E-06
            3017            3039     374.443E-06     392.749E-06
            3018            3039     374.443E-06     392.749E-06
            3002            3040     372.969E-06     391.674E-06
            3019            3040     372.969E-06     391.674E-06
            3001            3040     372.969E-06     391.674E-06
            3018            3040     372.969E-06     391.674E-06
            3003            3041     380.439E-06     386.042E-06
            3002            3041     380.439E-06     386.042E-06
            3019            3041     380.439E-06     386.042E-06
            3020            3041     380.439E-06     386.042E-06
            3021            3042     397.815E-06     364.749E-06
            3004            3042     397.815E-06     364.749E-06
            3003            3042     397.815E-06     364.749E-06
            3020            3042     397.815E-06     364.749E-06
            3005            3043     278.177E-06     298.908E-06
            3023            3043     278.177E-06     298.908E-06
            3006            3043     278.177E-06     298.908E-06
            3022            3043     278.177E-06     298.908E-06
            3023            3044     419.677E-06     426.746E-06
            3007            3044     419.677E-06     426.746E-06
            3006            3044     419.677E-06     426.746E-06
            3024            3044     419.677E-06     426.746E-06
            3008            3045     472.661E-06     467.426E-06
            3024            3045     472.661E-06     467.426E-06
            3007            3045     472.661E-06     467.426E-06
            3025            3045     472.661E-06     467.426E-06
            3025            3046     462.200E-06     458.616E-06
            3008            3046     462.200E-06     458.616E-06
            3009            3046     462.200E-06     458.616E-06
            3026            3046     462.200E-06     458.616E-06
            3027            3047     450.207E-06     447.481E-06
            3009            3047     450.207E-06     447.481E-06
            3010            3047     450.207E-06     447.481E-06
            3026            3047     450.207E-06     447.481E-06
            3027            3048     438.412E-06     435.954E-06
            3010            3048     438.412E-06     435.954E-06
            3028            3048     438.412E-06     435.954E-06
            3011            3048     438.412E-06     435.954E-06
            3028            3049     428.913E-06     426.914E-06
            3029            3049     428.913E-06     426.914E-06
            3012            3049     428.913E-06     426.914E-06
            3011            3049     428.913E-06     426.914E-06
            3029            3050     420.874E-06     419.435E-06
            3012            3050     420.874E-06     419.435E-06
            3013            3050     420.874E-06     419.435E-06
            3030            3050     420.874E-06     419.435E-06
            3030            3051     413.692E-06     412.970E-06
            3014            3051     413.692E-06     412.970E-06
            3031            3051     413.692E-06     412.970E-06
            3013            3051     413.692E-06     412.970E-06
            3031            3052     407.338E-06     407.397E-06
            3014            3052     407.338E-06     407.397E-06
            3032            3052     407.338E-06     407.397E-06
            3015            3052     407.338E-06     407.397E-06
            3033            3053     401.615E-06     402.575E-06
            3015            3053     401.615E-06     402.575E-06
            3016            3053     401.615E-06     402.575E-06
            3032            3053     401.615E-06     402.575E-06
            3016            3054     396.809E-06     398.816E-06
            3034            3054     396.809E-06     398.816E-06
            3033            3054     396.809E-06     398.816E-06
            3017            3054     396.809E-06     398.816E-06
            3034            3055     392.618E-06     396.225E-06
            3018            3055     392.618E-06     396.225E-06
            3017            3055     392.618E-06     396.225E-06
            3035            3055     392.618E-06     396.225E-06
            3036            3056     389.325E-06     396.778E-06
            3019            3056     389.325E-06     396.778E-06
            3018            3056     389.325E-06     396.778E-06
            3035            3056     389.325E-06     396.778E-06
            3036            3057     393.771E-06     394.552E-06
            3019            3057     393.771E-06     394.552E-06
            3020            3057     393.771E-06     394.552E-06
            3037            3057     393.771E-06     394.552E-06
            3020            3058     409.425E-06     377.807E-06
            3037            3058     409.425E-06     377.807E-06
            3021            3058     409.425E-06     377.807E-06
            3038            3058     409.425E-06     377.807E-06
            3039            3059     218.877E-06     235.371E-06
            3023            3059     218.877E-06     235.371E-06
            3022            3059     218.877E-06     235.371E-06
            3040            3059     218.877E-06     235.371E-06
            3024            3060     385.897E-06     350.202E-06
            3041            3060     385.897E-06     350.202E-06
            3040            3060     385.897E-06     350.202E-06
            3023            3060     385.897E-06     350.202E-06
            3024            3061     447.284E-06     412.027E-06
            3041            3061     447.284E-06     412.027E-06
            3025            3061     447.284E-06     412.027E-06
            3042            3061     447.284E-06     412.027E-06
            3025            3062     465.511E-06     430.467E-06
            3043            3062     465.511E-06     430.467E-06
            3042            3062     465.511E-06     430.467E-06
            3026            3062     465.511E-06     430.467E-06
            3026            3063     463.341E-06     430.178E-06
            3043            3063     463.341E-06     430.178E-06
            3044            3063     463.341E-06     430.178E-06
            3027            3063     463.341E-06     430.178E-06
            3027            3064     458.063E-06     425.987E-06
            3044            3064     458.063E-06     425.987E-06
            3028            3064     458.063E-06     425.987E-06
            3045            3064     458.063E-06     425.987E-06
            3028            3065     451.355E-06     420.849E-06
            3046            3065     451.355E-06     420.849E-06
            3045            3065     451.355E-06     420.849E-06
            3029            3065     451.355E-06     420.849E-06
            3046            3066     444.586E-06     415.917E-06
            3047            3066     444.586E-06     415.917E-06
            3030            3066     444.586E-06     415.917E-06
            3029            3066     444.586E-06     415.917E-06
            3031            3067     438.120E-06     411.432E-06
            3048            3067     438.120E-06     411.432E-06
            3030            3067     438.120E-06     411.432E-06
            3047            3067     438.120E-06     411.432E-06
            3031            3068     431.713E-06     407.696E-06
            3032            3068     431.713E-06     407.696E-06
            3048            3068     431.713E-06     407.696E-06
            3049            3068     431.713E-06     407.696E-06
            3032            3069     425.886E-06     404.722E-06
            3033            3069     425.886E-06     404.722E-06
            3050            3069     425.886E-06     404.722E-06
            3049            3069     425.886E-06     404.722E-06
            3051            3070     420.069E-06     402.480E-06
            3050            3070     420.069E-06     402.480E-06
            3034            3070     420.069E-06     402.480E-06
            3033            3070     420.069E-06     402.480E-06
            3034            3071     415.361E-06     401.651E-06
            3052            3071     415.361E-06     401.651E-06
            3035            3071     415.361E-06     401.651E-06
            3051            3071     415.361E-06     401.651E-06
            3052            3072     410.537E-06     400.506E-06
            3036            3072     410.537E-06     400.506E-06
            3035            3072     410.537E-06     400.506E-06
            3053            3072     410.537E-06     400.506E-06
            3036            3073     402.648E-06     404.311E-06
            3037            3073     402.648E-06     404.311E-06
            3053            3073     402.648E-06     404.311E-06
            3054            3073     402.648E-06     404.311E-06
            3037            3074     394.228E-06     418.909E-06
            3038            3074     394.228E-06     418.909E-06
            3055            3074     394.228E-06     418.909E-06
            3054            3074     394.228E-06     418.909E-06
            3056            3075     28.3142E-03     27.9660E-03
            3074            3075     28.3142E-03     27.9660E-03
            3073            3075     28.3142E-03     27.9660E-03
            3057            3075     28.3142E-03     27.9660E-03
            3074            3076     30.1952E-03     31.5460E-03
            3057            3076     30.1952E-03     31.5460E-03
            3075            3076     30.1952E-03     31.5460E-03
            3058            3076     30.1952E-03     31.5460E-03
            3075            3077     33.5224E-03     35.4695E-03
            3076            3077     33.5224E-03     35.4695E-03
            3059            3077     33.5224E-03     35.4695E-03
            3058            3077     33.5224E-03     35.4695E-03
            3076            3078     38.9856E-03     41.3442E-03
            3077            3078     38.9856E-03     41.3442E-03
            3060            3078     38.9856E-03     41.3442E-03
            3059            3078     38.9856E-03     41.3442E-03
            3078            3079     45.6174E-03     48.1239E-03
            3060            3079     45.6174E-03     48.1239E-03
            3061            3079     45.6174E-03     48.1239E-03
            3077            3079     45.6174E-03     48.1239E-03
            3079            3080     53.0307E-03     55.5685E-03
            3061            3080     53.0307E-03     55.5685E-03
            3078            3080     53.0307E-03     55.5685E-03
            3062            3080     53.0307E-03     55.5685E-03
            3062            3081     60.8760E-03     63.4532E-03
            3080            3081     60.8760E-03     63.4532E-03
            3079            3081     60.8760E-03     63.4532E-03
            3063            3081     60.8760E-03     63.4532E-03
            3080            3082     69.0503E-03     71.5785E-03
            3063            3082     69.0503E-03     71.5785E-03
            3064            3082     69.0503E-03     71.5785E-03
            3081            3082     69.0503E-03     71.5785E-03
            3082            3083     77.3604E-03     79.9568E-03
            3065            3083     77.3604E-03     79.9568E-03
            3064            3083     77.3604E-03     79.9568E-03
            3081            3083     77.3604E-03     79.9568E-03
            3065            3084     85.8964E-03     88.3751E-03
            3082            3084     85.8964E-03     88.3751E-03
            3083            3084     85.8964E-03     88.3751E-03
            3066            3084     85.8964E-03     88.3751E-03
            3066            3085     94.4058E-03     97.0360E-03
            3083            3085     94.4058E-03     97.0360E-03
            3084            3085     94.4058E-03     97.0360E-03
            3067            3085     94.4058E-03     97.0360E-03
            3068            3086     103.154E-03     105.574E-03
            3085            3086     103.154E-03     105.574E-03
            3084            3086     103.154E-03     105.574E-03
            3067            3086     103.154E-03     105.574E-03
            3085            3087     111.804E-03     114.446E-03
            3069            3087     111.804E-03     114.446E-03
            3086            3087     111.804E-03     114.446E-03
            3068            3087     111.804E-03     114.446E-03
            3070            3088     120.486E-03     122.932E-03
            3087            3088     120.486E-03     122.932E-03
            3069            3088     120.486E-03     122.932E-03
            3086            3088     120.486E-03     122.932E-03
            3070            3089     129.837E-03     132.202E-03
            3087            3089     129.837E-03     132.202E-03
            3088            3089     129.837E-03     132.202E-03
            3071            3089     129.837E-03     132.202E-03
            3088            3090     137.062E-03     139.807E-03
            3089            3090     137.062E-03     139.807E-03
            3072            3090     137.062E-03     139.807E-03
            3071            3090     137.062E-03     139.807E-03
            3091            3091     27.1527E-03     26.3149E-03
            3074            3091     27.1527E-03     26.3149E-03
            3090            3091     27.1527E-03     26.3149E-03
            3073            3091     27.1527E-03     26.3149E-03
            3074            3092     29.9691E-03     28.3214E-03
            3075            3092     29.9691E-03     28.3214E-03
            3092            3092     29.9691E-03     28.3214E-03
            3091            3092     29.9691E-03     28.3214E-03
            3092            3093     33.1990E-03     30.5643E-03
            3075            3093     33.1990E-03     30.5643E-03
            3093            3093     33.1990E-03     30.5643E-03
            3076            3093     33.1990E-03     30.5643E-03
            3093            3094     37.4491E-03     34.4174E-03
            3076            3094     37.4491E-03     34.4174E-03
            3077            3094     37.4491E-03     34.4174E-03
            3094            3094     37.4491E-03     34.4174E-03
            3077            3095     42.2171E-03     38.9470E-03
            3078            3095     42.2171E-03     38.9470E-03
            3095            3095     42.2171E-03     38.9470E-03
            3094            3095     42.2171E-03     38.9470E-03
            3095            3096     47.5071E-03     44.1121E-03
            3096            3096     47.5071E-03     44.1121E-03
            3079            3096     47.5071E-03     44.1121E-03
            3078            3096     47.5071E-03     44.1121E-03
            3079            3097     53.0779E-03     49.6478E-03
            3096            3097     53.0779E-03     49.6478E-03
            3097            3097     53.0779E-03     49.6478E-03
            3080            3097     53.0779E-03     49.6478E-03
            3097            3098     58.9517E-03     55.4345E-03
            3080            3098     58.9517E-03     55.4345E-03
            3081            3098     58.9517E-03     55.4345E-03
            3098            3098     58.9517E-03     55.4345E-03
            3098            3099     64.9380E-03     61.4458E-03
            3082            3099     64.9380E-03     61.4458E-03
            3099            3099     64.9380E-03     61.4458E-03
            3081            3099     64.9380E-03     61.4458E-03
            3100            3100     71.1209E-03     67.5128E-03
            3099            3100     71.1209E-03     67.5128E-03
            3083            3100     71.1209E-03     67.5128E-03
            3082            3100     71.1209E-03     67.5128E-03
            3100            3101     77.3313E-03     73.8038E-03
            3101            3101     77.3313E-03     73.8038E-03
            3084            3101     77.3313E-03     73.8038E-03
            3083            3101     77.3313E-03     73.8038E-03
            3084            3102     83.8518E-03     80.1388E-03
            3101            3102     83.8518E-03     80.1388E-03
            3102            3102     83.8518E-03     80.1388E-03
            3085            3102     83.8518E-03     80.1388E-03
            3085            3103     90.8972E-03     87.3212E-03
            3103            3103     90.8972E-03     87.3212E-03
            3086            3103     90.8972E-03     87.3212E-03
            3102            3103     90.8972E-03     87.3212E-03
            3086            3104     99.0193E-03     95.3469E-03
            3103            3104     99.0193E-03     95.3469E-03
            3087            3104     99.0193E-03     95.3469E-03
            3104            3104     99.0193E-03     95.3469E-03
            3088            3105     111.556E-03     108.434E-03
            3087            3105     111.556E-03     108.434E-03
            3104            3105     111.556E-03     108.434E-03
            3105            3105     111.556E-03     108.434E-03
            3105            3106     127.988E-03     127.700E-03
            3088            3106     127.988E-03     127.700E-03
            3089            3106     127.988E-03     127.700E-03
            3106            3106     127.988E-03     127.700E-03
            3108            3107     25.6953E-03     25.4898E-03
            3107            3107     25.6953E-03     25.4898E-03
            3091            3107     25.6953E-03     25.4898E-03
            3090            3107     25.6953E-03     25.4898E-03
            3109            3108     26.3120E-03     27.8137E-03
            3108            3108     26.3120E-03     27.8137E-03
            3091            3108     26.3120E-03     27.8137E-03
            3092            3108     26.3120E-03     27.8137E-03
            3092            3109     27.3231E-03     30.1828E-03
            3109            3109     27.3231E-03     30.1828E-03
            3110            3109     27.3231E-03     30.1828E-03
            3093            3109     27.3231E-03     30.1828E-03
            3093            3110     29.1031E-03     33.2026E-03
            3094            3110     29.1031E-03     33.2026E-03
            3111            3110     29.1031E-03     33.2026E-03
            3110            3110     29.1031E-03     33.2026E-03
            3111            3111     31.3172E-03     36.4614E-03
            3112            3111     31.3172E-03     36.4614E-03
            3095            3111     31.3172E-03     36.4614E-03
            3094            3111     31.3172E-03     36.4614E-03
            3113            3112     34.0417E-03     39.9151E-03
            3096            3112     34.0417E-03     39.9151E-03
            3095            3112     34.0417E-03     39.9151E-03
            3112            3112     34.0417E-03     39.9151E-03
            3114            3113     37.1371E-03     43.5621E-03
            3096            3113     37.1371E-03     43.5621E-03
            3113            3113     37.1371E-03     43.5621E-03
            3097            3113     37.1371E-03     43.5621E-03
            3115            3114     40.5499E-03     47.3581E-03
            3098            3114     40.5499E-03     47.3581E-03
            3114            3114     40.5499E-03     47.3581E-03
            3097            3114     40.5499E-03     47.3581E-03
            3116            3115     44.1786E-03     51.2984E-03
            3098            3115     44.1786E-03     51.2984E-03
            3099            3115     44.1786E-03     51.2984E-03
            3115            3115     44.1786E-03     51.2984E-03
            3117            3116     47.9474E-03     55.2909E-03
            3100            3116     47.9474E-03     55.2909E-03
            3099            3116     47.9474E-03     55.2909E-03
            3116            3116     47.9474E-03     55.2909E-03
            3100            3117     51.9181E-03     59.4615E-03
            3118            3117     51.9181E-03     59.4615E-03
            3101            3117     51.9181E-03     59.4615E-03
            3117            3117     51.9181E-03     59.4615E-03
            3102            3118     56.0899E-03     63.8203E-03
            3118            3118     56.0899E-03     63.8203E-03
            3119            3118     56.0899E-03     63.8203E-03
            3101            3118     56.0899E-03     63.8203E-03
            3119            3119     61.4418E-03     69.2787E-03
            3120            3119     61.4418E-03     69.2787E-03
            3102            3119     61.4418E-03     69.2787E-03
            3103            3119     61.4418E-03     69.2787E-03
            3121            3120     68.8910E-03     76.9324E-03
            3120            3120     68.8910E-03     76.9324E-03
            3104            3120     68.8910E-03     76.9324E-03
            3103            3120     68.8910E-03     76.9324E-03
            3104            3121     83.6995E-03     91.8567E-03
            3122            3121     83.6995E-03     91.8567E-03
            3105            3121     83.6995E-03     91.8567E-03
            3121            3121     83.6995E-03     91.8567E-03
            3106            3122     116.198E-03     123.090E-03
            3122            3122     116.198E-03     123.090E-03
            3105            3122     116.198E-03     123.090E-03
            3123            3122     116.198E-03     123.090E-03
            3124            3123     27.8444E-03     25.7377E-03
            3107            3123     27.8444E-03     25.7377E-03
            3108            3123     27.8444E-03     25.7377E-03
            3125            3123     27.8444E-03     25.7377E-03
            3126            3124     29.3889E-03     29.5148E-03
            3125            3124     29.3889E-03     29.5148E-03
            3109            3124     29.3889E-03     29.5148E-03
            3108            3124     29.3889E-03     29.5148E-03
            3109            3125     30.7279E-03     32.2065E-03
            3126            3125     30.7279E-03     32.2065E-03
            3110            3125     30.7279E-03     32.2065E-03
            3127            3125     30.7279E-03     32.2065E-03
            3110            3126     32.4338E-03     34.8474E-03
            3111            3126     32.4338E-03     34.8474E-03
            3128            3126     32.4338E-03     34.8474E-03
            3127            3126     32.4338E-03     34.8474E-03
            3128            3127     34.5887E-03     37.7616E-03
            3111            3127     34.5887E-03     37.7616E-03
            3112            3127     34.5887E-03     37.7616E-03
            3129            3127     34.5887E-03     37.7616E-03
            3112            3128     37.2096E-03     40.8856E-03
            3130            3128     37.2096E-03     40.8856E-03
            3113            3128     37.2096E-03     40.8856E-03
            3129            3128     37.2096E-03     40.8856E-03
            3113            3129     40.2751E-03     44.3228E-03
            3114            3129     40.2751E-03     44.3228E-03
            3130            3129     40.2751E-03     44.3228E-03
            3131            3129     40.2751E-03     44.3228E-03
            3115            3130     43.6777E-03     48.0193E-03
            3114            3130     43.6777E-03     48.0193E-03
            3132            3130     43.6777E-03     48.0193E-03
            3131            3130     43.6777E-03     48.0193E-03
            3132            3131     47.3643E-03     51.9272E-03
            3133            3131     47.3643E-03     51.9272E-03
            3115            3131     47.3643E-03     51.9272E-03
            3116            3131     47.3643E-03     51.9272E-03
            3117            3132     51.2878E-03     56.0413E-03
            3134            3132     51.2878E-03     56.0413E-03
            3116            3132     51.2878E-03     56.0413E-03
            3133            3132     51.2878E-03     56.0413E-03
            3118            3133     55.3645E-03     60.3157E-03
            3134            3133     55.3645E-03     60.3157E-03
            3117            3133     55.3645E-03     60.3157E-03
            3135            3133     55.3645E-03     60.3157E-03
            3136            3134     59.7603E-03     64.8909E-03
            3135            3134     59.7603E-03     64.8909E-03
            3118            3134     59.7603E-03     64.8909E-03
            3119            3134     59.7603E-03     64.8909E-03
            3136            3135     64.5052E-03     69.9255E-03
            3137            3135     64.5052E-03     69.9255E-03
            3119            3135     64.5052E-03     69.9255E-03
            3120            3135     64.5052E-03     69.9255E-03
            3137            3136     71.1620E-03     76.3624E-03
            3120            3136     71.1620E-03     76.3624E-03
            3138            3136     71.1620E-03     76.3624E-03
            3121            3136     71.1620E-03     76.3624E-03
            3139            3137     84.4372E-03     88.0298E-03
            3122            3137     84.4372E-03     88.0298E-03
            3121            3137     84.4372E-03     88.0298E-03
            3138            3137     84.4372E-03     88.0298E-03
            3140            3138     105.517E-03     106.212E-03
            3139            3138     105.517E-03     106.212E-03
            3122            3138     105.517E-03     106.212E-03
            3123            3138     105.517E-03     106.212E-03
            3125            3139     30.1673E-03     27.0176E-03
            3142            3139     30.1673E-03     27.0176E-03
            3124            3139     30.1673E-03     27.0176E-03
            3141            3139     30.1673E-03     27.0176E-03
            3143            3140     32.1730E-03     30.7232E-03
            3125            3140     32.1730E-03     30.7232E-03
            3126            3140     32.1730E-03     30.7232E-03
            3142            3140     32.1730E-03     30.7232E-03
            3143            3141     33.7499E-03     34.0289E-03
            3144            3141     33.7499E-03     34.0289E-03
            3126            3141     33.7499E-03     34.0289E-03
            3127            3141     33.7499E-03     34.0289E-03
            3127            3142     35.3956E-03     36.5318E-03
            3145            3142     35.3956E-03     36.5318E-03
            3128            3142     35.3956E-03     36.5318E-03
            3144            3142     35.3956E-03     36.5318E-03
            3145            3143     37.5357E-03     38.9783E-03
            3129            3143     37.5357E-03     38.9783E-03
            3128            3143     37.5357E-03     38.9783E-03
            3146            3143     37.5357E-03     38.9783E-03
            3146            3144     40.1340E-03     41.8139E-03
            3130            3144     40.1340E-03     41.8139E-03
            3147            3144     40.1340E-03     41.8139E-03
            3129            3144     40.1340E-03     41.8139E-03
            3147            3145     43.1346E-03     45.0028E-03
            3130            3145     43.1346E-03     45.0028E-03
            3131            3145     43.1346E-03     45.0028E-03
            3148            3145     43.1346E-03     45.0028E-03
            3149            3146     46.5296E-03     48.5464E-03
            3132            3146     46.5296E-03     48.5464E-03
            3148            3146     46.5296E-03     48.5464E-03
            3131            3146     46.5296E-03     48.5464E-03
            3149            3147     50.2584E-03     52.4021E-03
            3133            3147     50.2584E-03     52.4021E-03
            3150            3147     50.2584E-03     52.4021E-03
            3132            3147     50.2584E-03     52.4021E-03
            3134            3148     54.2861E-03     56.5578E-03
            3133            3148     54.2861E-03     56.5578E-03
            3150            3148     54.2861E-03     56.5578E-03
            3151            3148     54.2861E-03     56.5578E-03
            3152            3149     58.5504E-03     60.9426E-03
            3151            3149     58.5504E-03     60.9426E-03
            3134            3149     58.5504E-03     60.9426E-03
            3135            3149     58.5504E-03     60.9426E-03
            3153            3150     62.9683E-03     65.5598E-03
            3152            3150     62.9683E-03     65.5598E-03
            3136            3150     62.9683E-03     65.5598E-03
            3135            3150     62.9683E-03     65.5598E-03
            3136            3151     67.1290E-03     69.9971E-03
            3153            3151     67.1290E-03     69.9971E-03
            3137            3151     67.1290E-03     69.9971E-03
            3154            3151     67.1290E-03     69.9971E-03
            3155            3152     71.4540E-03     74.3669E-03
            3154            3152     71.4540E-03     74.3669E-03
            3138            3152     71.4540E-03     74.3669E-03
            3137            3152     71.4540E-03     74.3669E-03
            3156            3153     76.5515E-03     78.8425E-03
            3138            3153     76.5515E-03     78.8425E-03
            3139            3153     76.5515E-03     78.8425E-03
            3155            3153     76.5515E-03     78.8425E-03
            3157            3154     86.4177E-03     88.6283E-03
            3140            3154     86.4177E-03     88.6283E-03
            3156            3154     86.4177E-03     88.6283E-03
            3139            3154     86.4177E-03     88.6283E-03
            3141            3155     32.5102E-03     29.5971E-03
            3158            3155     32.5102E-03     29.5971E-03
            3142            3155     32.5102E-03     29.5971E-03
            3159            3155     32.5102E-03     29.5971E-03
            3159            3156     34.6059E-03     33.3403E-03
            3142            3156     34.6059E-03     33.3403E-03
            3160            3156     34.6059E-03     33.3403E-03
            3143            3156     34.6059E-03     33.3403E-03
            3160            3157     36.1805E-03     36.0500E-03
            3143            3157     36.1805E-03     36.0500E-03
            3144            3157     36.1805E-03     36.0500E-03
            3161            3157     36.1805E-03     36.0500E-03
            3144            3158     38.0377E-03     38.0336E-03
            3162            3158     38.0377E-03     38.0336E-03
            3161            3158     38.0377E-03     38.0336E-03
            3145            3158     38.0377E-03     38.0336E-03
            3145            3159     40.2462E-03     40.1500E-03
            3163            3159     40.2462E-03     40.1500E-03
            3146            3159     40.2462E-03     40.1500E-03
            3162            3159     40.2462E-03     40.1500E-03
            3164            3160     42.7995E-03     42.6637E-03
            3146            3160     42.7995E-03     42.6637E-03
            3147            3160     42.7995E-03     42.6637E-03
            3163            3160     42.7995E-03     42.6637E-03
            3165            3161     45.7369E-03     45.5696E-03
            3164            3161     45.7369E-03     45.5696E-03
            3147            3161     45.7369E-03     45.5696E-03
            3148            3161     45.7369E-03     45.5696E-03
            3166            3162     49.0220E-03     48.8470E-03
            3165            3162     49.0220E-03     48.8470E-03
            3148            3162     49.0220E-03     48.8470E-03
            3149            3162     49.0220E-03     48.8470E-03
            3166            3163     52.6531E-03     52.4739E-03
            3150            3163     52.6531E-03     52.4739E-03
            3149            3163     52.6531E-03     52.4739E-03
            3167            3163     52.6531E-03     52.4739E-03
            3167            3164     56.5662E-03     56.3887E-03
            3151            3164     56.5662E-03     56.3887E-03
            3168            3164     56.5662E-03     56.3887E-03
            3150            3164     56.5662E-03     56.3887E-03
            3168            3165     60.7423E-03     60.5879E-03
            3151            3165     60.7423E-03     60.5879E-03
            3152            3165     60.7423E-03     60.5879E-03
            3169            3165     60.7423E-03     60.5879E-03
            3169            3166     64.7185E-03     64.6758E-03
            3170            3166     64.7185E-03     64.6758E-03
            3153            3166     64.7185E-03     64.6758E-03
            3152            3166     64.7185E-03     64.6758E-03
            3153            3167     68.2826E-03     68.3521E-03
            3170            3167     68.2826E-03     68.3521E-03
            3154            3167     68.2826E-03     68.3521E-03
            3171            3167     68.2826E-03     68.3521E-03
            3172            3168     68.6641E-03     69.6666E-03
            3155            3168     68.6641E-03     69.6666E-03
            3154            3168     68.6641E-03     69.6666E-03
            3171            3168     68.6641E-03     69.6666E-03
            3173            3169     65.1377E-03     67.1619E-03
            3155            3169     65.1377E-03     67.1619E-03
            3156            3169     65.1377E-03     67.1619E-03
            3172            3169     65.1377E-03     67.1619E-03
            3156            3170     68.5466E-03     68.7710E-03
            3174            3170     68.5466E-03     68.7710E-03
            3157            3170     68.5466E-03     68.7710E-03
            3173            3170     68.5466E-03     68.7710E-03
            3175            3171     34.6659E-03     34.0077E-03
            3158            3171     34.6659E-03     34.0077E-03
            3159            3171     34.6659E-03     34.0077E-03
            3176            3171     34.6659E-03     34.0077E-03
            3159            3172     36.3962E-03     36.8930E-03
            3177            3172     36.3962E-03     36.8930E-03
            3176            3172     36.3962E-03     36.8930E-03
            3160            3172     36.3962E-03     36.8930E-03
            3178            3173     38.4024E-03     38.0543E-03
            3161            3173     38.4024E-03     38.0543E-03
            3177            3173     38.4024E-03     38.0543E-03
            3160            3173     38.4024E-03     38.0543E-03
            3162            3174     40.5714E-03     39.4453E-03
            3161            3174     40.5714E-03     39.4453E-03
            3178            3174     40.5714E-03     39.4453E-03
            3179            3174     40.5714E-03     39.4453E-03
            3163            3175     42.8306E-03     41.3420E-03
            3179            3175     42.8306E-03     41.3420E-03
            3180            3175     42.8306E-03     41.3420E-03
            3162            3175     42.8306E-03     41.3420E-03
            3163            3176     45.3512E-03     43.5415E-03
            3180            3176     45.3512E-03     43.5415E-03
            3164            3176     45.3512E-03     43.5415E-03
            3181            3176     45.3512E-03     43.5415E-03
            3164            3177     48.1540E-03     46.1116E-03
            3165            3177     48.1540E-03     46.1116E-03
            3182            3177     48.1540E-03     46.1116E-03
            3181            3177     48.1540E-03     46.1116E-03
            3182            3178     51.2210E-03     48.9773E-03
            3166            3178     51.2210E-03     48.9773E-03
            3183            3178     51.2210E-03     48.9773E-03
            3165            3178     51.2210E-03     48.9773E-03
            3166            3179     54.5182E-03     52.1023E-03
            3184            3179     54.5182E-03     52.1023E-03
            3167            3179     54.5182E-03     52.1023E-03
            3183            3179     54.5182E-03     52.1023E-03
            3167            3180     58.0191E-03     55.4382E-03
            3168            3180     58.0191E-03     55.4382E-03
            3185            3180     58.0191E-03     55.4382E-03
            3184            3180     58.0191E-03     55.4382E-03
            3169            3181     61.5078E-03     58.7904E-03
            3185            3181     61.5078E-03     58.7904E-03
            3186            3181     61.5078E-03     58.7904E-03
            3168            3181     61.5078E-03     58.7904E-03
            3170            3182     64.7908E-03     61.9223E-03
            3186            3182     64.7908E-03     61.9223E-03
            3187            3182     64.7908E-03     61.9223E-03
            3169            3182     64.7908E-03     61.9223E-03
            3187            3183     66.6084E-03     63.8113E-03
            3188            3183     66.6084E-03     63.8113E-03
            3171            3183     66.6084E-03     63.8113E-03
            3170            3183     66.6084E-03     63.8113E-03
            3188            3184     65.2830E-03     62.8862E-03
            3172            3184     65.2830E-03     62.8862E-03
            3171            3184     65.2830E-03     62.8862E-03
            3189            3184     65.2830E-03     62.8862E-03
            3172            3185     56.1741E-03     55.2087E-03
            3173            3185     56.1741E-03     55.2087E-03
            3190            3185     56.1741E-03     55.2087E-03
            3189            3185     56.1741E-03     55.2087E-03
            3174            3186     50.7130E-03     50.2742E-03
            3190            3186     50.7130E-03     50.2742E-03
            3173            3186     50.7130E-03     50.2742E-03
            3191            3186     50.7130E-03     50.2742E-03
            3192            3187     35.8640E-03     38.6109E-03
            3176            3187     35.8640E-03     38.6109E-03
            3193            3187     35.8640E-03     38.6109E-03
            3175            3187     35.8640E-03     38.6109E-03
            3193            3188     38.6098E-03     39.1076E-03
            3176            3188     38.6098E-03     39.1076E-03
            3194            3188     38.6098E-03     39.1076E-03
            3177            3188     38.6098E-03     39.1076E-03
            3178            3189     40.9515E-03     39.6965E-03
            3195            3189     40.9515E-03     39.6965E-03
            3177            3189     40.9515E-03     39.6965E-03
            3194            3189     40.9515E-03     39.6965E-03
            3178            3190     43.2093E-03     41.0550E-03
            3179            3190     43.2093E-03     41.0550E-03
            3196            3190     43.2093E-03     41.0550E-03
            3195            3190     43.2093E-03     41.0550E-03
            3196            3191     45.4862E-03     42.7116E-03
            3180            3191     45.4862E-03     42.7116E-03
            3197            3191     45.4862E-03     42.7116E-03
            3179            3191     45.4862E-03     42.7116E-03
            3181            3192     47.9672E-03     44.6688E-03
            3198            3192     47.9672E-03     44.6688E-03
            3197            3192     47.9672E-03     44.6688E-03
            3180            3192     47.9672E-03     44.6688E-03
            3181            3193     50.5805E-03     46.8410E-03
            3198            3193     50.5805E-03     46.8410E-03
            3182            3193     50.5805E-03     46.8410E-03
            3199            3193     50.5805E-03     46.8410E-03
            3182            3194     53.3345E-03     49.1934E-03
            3200            3194     53.3345E-03     49.1934E-03
            3183            3194     53.3345E-03     49.1934E-03
            3199            3194     53.3345E-03     49.1934E-03
            3184            3195     56.1461E-03     51.6280E-03
            3200            3195     56.1461E-03     51.6280E-03
            3183            3195     56.1461E-03     51.6280E-03
            3201            3195     56.1461E-03     51.6280E-03
            3202            3196     58.8758E-03     54.0238E-03
            3201            3196     58.8758E-03     54.0238E-03
            3184            3196     58.8758E-03     54.0238E-03
            3185            3196     58.8758E-03     54.0238E-03
            3202            3197     61.3345E-03     56.0883E-03
            3185            3197     61.3345E-03     56.0883E-03
            3186            3197     61.3345E-03     56.0883E-03
            3203            3197     61.3345E-03     56.0883E-03
            3203            3198     63.0165E-03     57.4148E-03
            3187            3198     63.0165E-03     57.4148E-03
            3204            3198     63.0165E-03     57.4148E-03
            3186            3198     63.0165E-03     57.4148E-03
            3204            3199     62.9945E-03     56.9515E-03
            3187            3199     62.9945E-03     56.9515E-03
            3205            3199     62.9945E-03     56.9515E-03
            3188            3199     62.9945E-03     56.9515E-03
            3188            3200     59.9259E-03     53.2719E-03
            3189            3200     59.9259E-03     53.2719E-03
            3205            3200     59.9259E-03     53.2719E-03
            3206            3200     59.9259E-03     53.2719E-03
            3190            3201     49.8493E-03     43.1959E-03
            3207            3201     49.8493E-03     43.1959E-03
            3189            3201     49.8493E-03     43.1959E-03
            3206            3201     49.8493E-03     43.1959E-03
            3207            3202     38.3406E-03     37.0528E-03
            3208            3202     38.3406E-03     37.0528E-03
            3190            3202     38.3406E-03     37.0528E-03
            3191            3202     38.3406E-03     37.0528E-03
            3209            3203     19.1511E-03     20.6485E-03
            3193            3203     19.1511E-03     20.6485E-03
            3210            3203     19.1511E-03     20.6485E-03
            3192            3203     19.1511E-03     20.6485E-03
            3194            3204     21.0190E-03     20.7050E-03
            3193            3204     21.0190E-03     20.7050E-03
            3210            3204     21.0190E-03     20.7050E-03
            3211            3204     21.0190E-03     20.7050E-03
            3194            3205     22.1932E-03     21.1571E-03
            3212            3205     22.1932E-03     21.1571E-03
            3211            3205     22.1932E-03     21.1571E-03
            3195            3205     22.1932E-03     21.1571E-03
            3213            3206     23.4480E-03     22.0702E-03
            3212            3206     23.4480E-03     22.0702E-03
            3196            3206     23.4480E-03     22.0702E-03
            3195            3206     23.4480E-03     22.0702E-03
            3196            3207     24.7461E-03     23.0040E-03
            3197            3207     24.7461E-03     23.0040E-03
            3213            3207     24.7461E-03     23.0040E-03
            3214            3207     24.7461E-03     23.0040E-03
            3197            3208     26.1363E-03     24.1258E-03
            3215            3208     26.1363E-03     24.1258E-03
            3214            3208     26.1363E-03     24.1258E-03
            3198            3208     26.1363E-03     24.1258E-03
            3199            3209     27.5900E-03     25.2985E-03
            3215            3209     27.5900E-03     25.2985E-03
            3198            3209     27.5900E-03     25.2985E-03
            3216            3209     27.5900E-03     25.2985E-03
            3217            3210     29.0758E-03     26.5574E-03
            3199            3210     29.0758E-03     26.5574E-03
            3200            3210     29.0758E-03     26.5574E-03
            3216            3210     29.0758E-03     26.5574E-03
            3218            3211     30.5497E-03     27.7922E-03
            3201            3211     30.5497E-03     27.7922E-03
            3217            3211     30.5497E-03     27.7922E-03
            3200            3211     30.5497E-03     27.7922E-03
            3201            3212     31.9101E-03     28.9393E-03
            3218            3212     31.9101E-03     28.9393E-03
            3202            3212     31.9101E-03     28.9393E-03
            3219            3212     31.9101E-03     28.9393E-03
            3219            3213     33.0439E-03     29.8407E-03
            3203            3213     33.0439E-03     29.8407E-03
            3202            3213     33.0439E-03     29.8407E-03
            3220            3213     33.0439E-03     29.8407E-03
            3204            3214     33.5929E-03     30.1266E-03
            3220            3214     33.5929E-03     30.1266E-03
            3203            3214     33.5929E-03     30.1266E-03
            3221            3214     33.5929E-03     30.1266E-03
            3204            3215     33.3840E-03     29.5488E-03
            3221            3215     33.3840E-03     29.5488E-03
            3205            3215     33.3840E-03     29.5488E-03
            3222            3215     33.3840E-03     29.5488E-03
            3223            3216     31.2687E-03     26.9439E-03
            3222            3216     31.2687E-03     26.9439E-03
            3205            3216     31.2687E-03     26.9439E-03
            3206            3216     31.2687E-03     26.9439E-03
            3224            3217     27.0303E-03     21.9154E-03
            3207            3217     27.0303E-03     21.9154E-03
            3223            3217     27.0303E-03     21.9154E-03
            3206            3217     27.0303E-03     21.9154E-03
            3224            3218     20.8801E-03     19.9620E-03
            3208            3218     20.8801E-03     19.9620E-03
            3207            3218     20.8801E-03     19.9620E-03
            3225            3218     20.8801E-03     19.9620E-03
            3231            3219     730.873E-06     710.785E-06
            3232            3219     730.873E-06     710.785E-06
            3226            3219     730.873E-06     710.785E-06
            3227            3219     730.873E-06     710.785E-06
            3228            3220     668.345E-06     648.635E-06
            3227            3220     668.345E-06     648.635E-06
            3232            3220     668.345E-06     648.635E-06
            3233            3220     668.345E-06     648.635E-06
            3233            3221     603.267E-06     602.570E-06
            3229            3221     603.267E-06     602.570E-06
            3234            3221     603.267E-06     602.570E-06
            3228            3221     603.267E-06     602.570E-06
            3229            3222     689.866E-06     703.676E-06
            3234            3222     689.866E-06     703.676E-06
            3235            3222     689.866E-06     703.676E-06
            3230            3222     689.866E-06     703.676E-06
            3237            3223     719.167E-06     708.272E-06
            3232            3223     719.167E-06     708.272E-06
            3231            3223     719.167E-06     708.272E-06
            3236            3223     719.167E-06     708.272E-06
            3237            3224     633.403E-06     606.482E-06
            3238            3224     633.403E-06     606.482E-06
            3232            3224     633.403E-06     606.482E-06
            3233            3224     633.403E-06     606.482E-06
            3233            3225     521.830E-06     475.411E-06
            3239            3225     521.830E-06     475.411E-06
            3234            3225     521.830E-06     475.411E-06
            3238            3225     521.830E-06     475.411E-06
            3239            3226     502.749E-06     459.162E-06
            3240            3226     502.749E-06     459.162E-06
            3234            3226     502.749E-06     459.162E-06
            3235            3226     502.749E-06     459.162E-06
            3236            3227     699.217E-06     696.052E-06
            3241            3227     699.217E-06     696.052E-06
            3237            3227     699.217E-06     696.052E-06
            3242            3227     699.217E-06     696.052E-06
            3237            3228     567.648E-06     583.994E-06
            3242            3228     567.648E-06     583.994E-06
            3238            3228     567.648E-06     583.994E-06
            3243            3228     567.648E-06     583.994E-06
            3238            3229     369.721E-06     403.712E-06
            3239            3229     369.721E-06     403.712E-06
            3244            3229     369.721E-06     403.712E-06
            3243            3229     369.721E-06     403.712E-06
            3240            3230     268.816E-06     309.250E-06
            3244            3230     268.816E-06     309.250E-06
            3239            3230     268.816E-06     309.250E-06
            3245            3230     268.816E-06     309.250E-06
            3242            3231     701.609E-06     685.576E-06
            3246            3231     701.609E-06     685.576E-06
            3241            3231     701.609E-06     685.576E-06
            3247            3231     701.609E-06     685.576E-06
            3248            3232     556.866E-06     551.564E-06
            3247            3232     556.866E-06     551.564E-06
            3243            3232     556.866E-06     551.564E-06
            3242            3232     556.866E-06     551.564E-06
            3248            3233     341.526E-06     350.865E-06
            3244            3233     341.526E-06     350.865E-06
            3243            3233     341.526E-06     350.865E-06
            3249            3233     341.526E-06     350.865E-06
            3250            3234     231.402E-06     265.435E-06
            3245            3234     231.402E-06     265.435E-06
            3249            3234     231.402E-06     265.435E-06
            3244            3234     231.402E-06     265.435E-06


  Minimum                            162.074E-06     226.911E-06
      At Element                            2439            2439
            Node                             183             183

  Maximum                            264.726E-03     259.638E-03
      At Element                            2805            2810
            Node                             399             398

           Total                         739.049         757.762


Field Output reported at element nodes for region: F100-1.Region_2
   Computation algorithm: EXTRAPOLATE_COMPUTE_AVERAGE
   Averaged at nodes
   Averaging regions: ODB_REGIONS

   Element Label      Node Label         S.Mises         S.Mises
                                          @Loc 1          @Loc 2
-----------------------------------------------------------------
            2133               2     20.7017E-03     20.7499E-03
             881               2     20.7017E-03     20.7499E-03
            1018               3     166.755E-03     159.840E-03
            2235               3     166.755E-03     159.840E-03
            1003               5     20.7148E-03     20.6210E-03
             896               5     20.7148E-03     20.6210E-03
            1015               6     700.894E-06     709.413E-06
             893               9     700.894E-06     709.413E-06
             998              11     183.007E-03     164.083E-03
            2326              11     183.007E-03     164.083E-03
             883              13     25.5815E-03     25.5757E-03
             898              13     25.5815E-03     25.5757E-03
            2131              13     25.5815E-03     25.5757E-03
            1001              13     25.5815E-03     25.5757E-03
             895              14     948.987E-06     948.768E-06
            1013              14     948.987E-06     948.768E-06
            1000              15     54.3613E-03     50.8602E-03
            1016              15     54.3613E-03     50.8602E-03
            2328              15     54.3613E-03     50.8602E-03
            2233              15     54.3613E-03     50.8602E-03
            1030              16     210.980E-03     201.845E-03
            2903              16     210.980E-03     201.845E-03
            2340              17     58.2808E-03     57.9615E-03
            1028              17     58.2808E-03     57.9615E-03
            2238              17     58.2808E-03     57.9615E-03
            2901              17     58.2808E-03     57.9615E-03
            2338              20     202.752E-03     204.110E-03
            2236              20     202.752E-03     204.110E-03
            2343              21     158.842E-03     154.419E-03
            2915              21     158.842E-03     154.419E-03
            2248              23     153.309E-03     149.040E-03
            2941              23     153.309E-03     149.040E-03
            2250              25     123.961E-03     122.512E-03
            2913              25     123.961E-03     122.512E-03
            2943              25     123.961E-03     122.512E-03
            2341              25     123.961E-03     122.512E-03
            2968              26     32.1225E-03     31.8830E-03
            2821              26     32.1225E-03     31.8830E-03
            2888              28     32.1382E-03     31.8984E-03
            2370              28     32.1382E-03     31.8984E-03
            2368              29     31.9162E-03     31.6966E-03
            2886              29     31.9162E-03     31.6966E-03
            2970              29     31.9162E-03     31.6966E-03
            2823              29     31.9162E-03     31.6966E-03
            2900              31     700.360E-06     709.884E-06
            2835              33     947.783E-06     946.950E-06
            2898              33     947.783E-06     946.950E-06
            2833              34     700.360E-06     709.884E-06
            2133              52     41.8858E-03     42.1786E-03
            2136              52     41.8858E-03     42.1786E-03
            2139              53     39.8000E-03     39.9132E-03
            2136              53     39.8000E-03     39.9132E-03
            2139              54     35.4578E-03     36.3868E-03
            2142              54     35.4578E-03     36.3868E-03
            2145              55     37.2711E-03     38.3904E-03
            2142              55     37.2711E-03     38.3904E-03
            2148              56     42.8911E-03     43.1709E-03
            2145              56     42.8911E-03     43.1709E-03
            2148              57     51.4041E-03     51.4608E-03
            2151              57     51.4041E-03     51.4608E-03
            2151              58     63.6534E-03     62.6277E-03
            2154              58     63.6534E-03     62.6277E-03
            2157              59     56.3616E-03     53.0575E-03
            2154              59     56.3616E-03     53.0575E-03
            2160              60     47.2240E-03     46.7763E-03
            2157              60     47.2240E-03     46.7763E-03
            2160              61     56.9565E-03     58.8094E-03
            2163              61     56.9565E-03     58.8094E-03
            2166              62     66.3737E-03     66.1994E-03
            2163              62     66.3737E-03     66.1994E-03
            2166              63     75.0714E-03     74.6497E-03
            2169              63     75.0714E-03     74.6497E-03
            2169              64     85.2536E-03     84.9966E-03
            2172              64     85.2536E-03     84.9966E-03
            2172              65     97.9394E-03     95.6591E-03
            2175              65     97.9394E-03     95.6591E-03
            2175              66     88.1039E-03     81.2539E-03
            2178              66     88.1039E-03     81.2539E-03
            2181              67     78.6615E-03     76.6750E-03
            2178              67     78.6615E-03     76.6750E-03
            2181              68     91.3162E-03     93.5001E-03
            2184              68     91.3162E-03     93.5001E-03
            2187              69     101.180E-03     100.895E-03
            2184              69     101.180E-03     100.895E-03
            2190              70     111.698E-03     112.198E-03
            2187              70     111.698E-03     112.198E-03
            2193              71     124.122E-03     120.947E-03
            2190              71     124.122E-03     120.947E-03
            2193              72     114.651E-03     104.487E-03
            2196              72     114.651E-03     104.487E-03
            2196              73     105.826E-03     102.385E-03
            2199              73     105.826E-03     102.385E-03
            2199              74     118.438E-03     120.697E-03
            2202              74     118.438E-03     120.697E-03
            2205              75     128.552E-03     127.723E-03
            2202              75     128.552E-03     127.723E-03
            2208              76     137.262E-03     136.268E-03
            2205              76     137.262E-03     136.268E-03
            2208              77     147.275E-03     147.351E-03
            2211              77     147.275E-03     147.351E-03
            2214              78     158.678E-03     154.328E-03
            2211              78     158.678E-03     154.328E-03
            2217              79     148.303E-03     135.387E-03
            2214              79     148.303E-03     135.387E-03
            2220              80     139.788E-03     135.591E-03
            2217              80     139.788E-03     135.591E-03
            2223              81     152.951E-03     155.811E-03
            2220              81     152.951E-03     155.811E-03
            2223              82     162.311E-03     161.682E-03
            2226              82     162.311E-03     161.682E-03
            2229              83     172.339E-03     173.570E-03
            2226              83     172.339E-03     173.570E-03
            2232              84     183.223E-03     178.226E-03
            2229              84     183.223E-03     178.226E-03
            2232              85     175.241E-03     168.934E-03
            2235              85     175.241E-03     168.934E-03
            1003             152     916.228E-06     905.605E-06
            1006             152     916.228E-06     905.605E-06
            1006             153     724.726E-06     736.374E-06
            1009             153     724.726E-06     736.374E-06
            1009             154     644.955E-06     659.935E-06
            1012             154     644.955E-06     659.935E-06
            1015             155     675.802E-06     688.245E-06
            1012             155     675.802E-06     688.245E-06
             884             180     916.228E-06     905.605E-06
             881             180     916.228E-06     905.605E-06
             884             181     724.726E-06     736.374E-06
             887             181     724.726E-06     736.374E-06
             890             182     644.955E-06     659.935E-06
             887             182     644.955E-06     659.935E-06
             893             183     675.802E-06     688.245E-06
             890             183     675.802E-06     688.245E-06
             899             196     42.2546E-03     41.9433E-03
             896             196     42.2546E-03     41.9433E-03
             902             197     39.5811E-03     39.4104E-03
             899             197     39.5811E-03     39.4104E-03
             902             198     35.2738E-03     36.1275E-03
             905             198     35.2738E-03     36.1275E-03
             905             199     38.3167E-03     39.1709E-03
             908             199     38.3167E-03     39.1709E-03
             908             200     44.6344E-03     44.5308E-03
             911             200     44.6344E-03     44.5308E-03
             914             201     53.5755E-03     53.4233E-03
             911             201     53.5755E-03     53.4233E-03
             914             202     66.3870E-03     64.8224E-03
             917             202     66.3870E-03     64.8224E-03
             917             203     59.1308E-03     55.7178E-03
             920             203     59.1308E-03     55.7178E-03
             920             204     50.6858E-03     50.5094E-03
             923             204     50.6858E-03     50.5094E-03
             923             205     61.7794E-03     63.2774E-03
             926             205     61.7794E-03     63.2774E-03
             929             206     71.5595E-03     71.2540E-03
             926             206     71.5595E-03     71.2540E-03
             929             207     80.7182E-03     79.9235E-03
             932             207     80.7182E-03     79.9235E-03
             932             208     91.1308E-03     90.8044E-03
             935             208     91.1308E-03     90.8044E-03
             938             209     104.481E-03     101.476E-03
             935             209     104.481E-03     101.476E-03
             938             210     95.2020E-03     88.2025E-03
             941             210     95.2020E-03     88.2025E-03
             941             211     86.7008E-03     85.0286E-03
             944             211     86.7008E-03     85.0286E-03
             944             212     100.159E-03     102.015E-03
             947             212     100.159E-03     102.015E-03
             950             213     110.194E-03     109.631E-03
             947             213     110.194E-03     109.631E-03
             953             214     121.081E-03     121.431E-03
             950             214     121.081E-03     121.431E-03
             953             215     134.190E-03     130.206E-03
             956             215     134.190E-03     130.206E-03
             956             216     125.542E-03     115.018E-03
             959             216     125.542E-03     115.018E-03
             959             217     117.581E-03     114.458E-03
             962             217     117.581E-03     114.458E-03
             962             218     130.804E-03     132.647E-03
             965             218     130.804E-03     132.647E-03
             965             219     141.012E-03     140.019E-03
             968             219     141.012E-03     140.019E-03
             968             220     150.089E-03     148.651E-03
             971             220     150.089E-03     148.651E-03
             974             221     160.258E-03     160.250E-03
             971             221     160.258E-03     160.250E-03
             974             222     172.474E-03     167.164E-03
             977             222     172.474E-03     167.164E-03
             977             223     162.951E-03     149.519E-03
             980             223     162.951E-03     149.519E-03
             980             224     155.356E-03     151.321E-03
             983             224     155.356E-03     151.321E-03
             983             225     168.940E-03     171.422E-03
             986             225     168.940E-03     171.422E-03
             986             226     178.294E-03     177.327E-03
             989             226     178.294E-03     177.327E-03
             989             227     188.750E-03     189.783E-03
             992             227     188.750E-03     189.783E-03
             995             228     200.466E-03     194.439E-03
             992             228     200.466E-03     194.439E-03
             995             229     192.426E-03     184.673E-03
             998             229     192.426E-03     184.673E-03
             882             268     24.0158E-03     23.9934E-03
            2133             268     24.0158E-03     23.9934E-03
             881             268     24.0158E-03     23.9934E-03
            2132             268     24.0158E-03     23.9934E-03
             883             269     26.4546E-03     26.4078E-03
            2132             269     26.4546E-03     26.4078E-03
             882             269     26.4546E-03     26.4078E-03
            2131             269     26.4546E-03     26.4078E-03
            1004             270     948.897E-06     964.581E-06
            1001             270     948.897E-06     964.581E-06
             886             270     948.897E-06     964.581E-06
             883             270     948.897E-06     964.581E-06
            1004             271     1.01564E-03     1.03788E-03
            1007             271     1.01564E-03     1.03788E-03
             886             271     1.01564E-03     1.03788E-03
             889             271     1.01564E-03     1.03788E-03
             889             272     1.02141E-03     1.03450E-03
            1010             272     1.02141E-03     1.03450E-03
            1007             272     1.02141E-03     1.03450E-03
             892             272     1.02141E-03     1.03450E-03
            1010             273     974.998E-06     977.167E-06
            1013             273     974.998E-06     977.167E-06
             892             273     974.998E-06     977.167E-06
             895             273     974.998E-06     977.167E-06
             895             274     930.791E-06     932.635E-06
             894             274     930.791E-06     932.635E-06
             893             275     806.744E-06     812.958E-06
             894             275     806.744E-06     812.958E-06
             896             276     23.9857E-03     23.9755E-03
            1003             276     23.9857E-03     23.9755E-03
            1002             276     23.9857E-03     23.9755E-03
             897             276     23.9857E-03     23.9755E-03
            1001             277     26.4202E-03     26.4514E-03
             898             277     26.4202E-03     26.4514E-03
             897             277     26.4202E-03     26.4514E-03
            1002             277     26.4202E-03     26.4514E-03
             901             278     49.7545E-03     49.7261E-03
            2131             278     49.7545E-03     49.7261E-03
             898             278     49.7545E-03     49.7261E-03
            2134             278     49.7545E-03     49.7261E-03
             904             279     50.4413E-03     50.0512E-03
            2137             279     50.4413E-03     50.0512E-03
             901             279     50.4413E-03     50.0512E-03
            2134             279     50.4413E-03     50.0512E-03
            2137             280     52.8261E-03     51.7774E-03
            2140             280     52.8261E-03     51.7774E-03
             907             280     52.8261E-03     51.7774E-03
             904             280     52.8261E-03     51.7774E-03
            2140             281     55.5817E-03     54.4073E-03
             907             281     55.5817E-03     54.4073E-03
             910             281     55.5817E-03     54.4073E-03
            2143             281     55.5817E-03     54.4073E-03
            2143             282     57.4033E-03     57.3098E-03
            2146             282     57.4033E-03     57.3098E-03
             913             282     57.4033E-03     57.3098E-03
             910             282     57.4033E-03     57.3098E-03
             913             283     55.5575E-03     56.7211E-03
            2146             283     55.5575E-03     56.7211E-03
             916             283     55.5575E-03     56.7211E-03
            2149             283     55.5575E-03     56.7211E-03
             919             284     50.4778E-03     51.5180E-03
            2152             284     50.4778E-03     51.5180E-03
            2149             284     50.4778E-03     51.5180E-03
             916             284     50.4778E-03     51.5180E-03
             919             285     50.0517E-03     49.3749E-03
            2152             285     50.0517E-03     49.3749E-03
            2155             285     50.0517E-03     49.3749E-03
             922             285     50.0517E-03     49.3749E-03
            2155             286     53.0253E-03     50.2689E-03
             922             286     53.0253E-03     50.2689E-03
             925             286     53.0253E-03     50.2689E-03
            2158             286     53.0253E-03     50.2689E-03
             925             287     54.3541E-03     51.3665E-03
             928             287     54.3541E-03     51.3665E-03
            2158             287     54.3541E-03     51.3665E-03
            2161             287     54.3541E-03     51.3665E-03
             928             288     55.9597E-03     54.7020E-03
             931             288     55.9597E-03     54.7020E-03
            2161             288     55.9597E-03     54.7020E-03
            2164             288     55.9597E-03     54.7020E-03
            2164             289     57.1024E-03     58.4223E-03
             934             289     57.1024E-03     58.4223E-03
            2167             289     57.1024E-03     58.4223E-03
             931             289     57.1024E-03     58.4223E-03
            2167             290     55.0386E-03     58.1847E-03
            2170             290     55.0386E-03     58.1847E-03
             934             290     55.0386E-03     58.1847E-03
             937             290     55.0386E-03     58.1847E-03
            2170             291     48.5497E-03     50.8569E-03
            2173             291     48.5497E-03     50.8569E-03
             937             291     48.5497E-03     50.8569E-03
             940             291     48.5497E-03     50.8569E-03
            2176             292     50.5415E-03     49.6312E-03
            2173             292     50.5415E-03     49.6312E-03
             943             292     50.5415E-03     49.6312E-03
             940             292     50.5415E-03     49.6312E-03
            2179             293     55.3216E-03     51.4379E-03
            2176             293     55.3216E-03     51.4379E-03
             943             293     55.3216E-03     51.4379E-03
             946             293     55.3216E-03     51.4379E-03
             949             294     55.1991E-03     51.6556E-03
            2182             294     55.1991E-03     51.6556E-03
             946             294     55.1991E-03     51.6556E-03
            2179             294     55.1991E-03     51.6556E-03
             952             295     57.1339E-03     57.7861E-03
            2182             295     57.1339E-03     57.7861E-03
             949             295     57.1339E-03     57.7861E-03
            2185             295     57.1339E-03     57.7861E-03
             955             296     55.0999E-03     59.1904E-03
            2185             296     55.0999E-03     59.1904E-03
             952             296     55.0999E-03     59.1904E-03
            2188             296     55.0999E-03     59.1904E-03
            2188             297     47.6766E-03     50.5879E-03
            2191             297     47.6766E-03     50.5879E-03
             955             297     47.6766E-03     50.5879E-03
             958             297     47.6766E-03     50.5879E-03
             958             298     50.7147E-03     49.1546E-03
            2194             298     50.7147E-03     49.1546E-03
            2191             298     50.7147E-03     49.1546E-03
             961             298     50.7147E-03     49.1546E-03
             964             299     56.7332E-03     51.1147E-03
            2197             299     56.7332E-03     51.1147E-03
             961             299     56.7332E-03     51.1147E-03
            2194             299     56.7332E-03     51.1147E-03
             964             300     55.6115E-03     50.3657E-03
             967             300     55.6115E-03     50.3657E-03
            2200             300     55.6115E-03     50.3657E-03
            2197             300     55.6115E-03     50.3657E-03
             970             301     56.9376E-03     55.2413E-03
            2203             301     56.9376E-03     55.2413E-03
            2200             301     56.9376E-03     55.2413E-03
             967             301     56.9376E-03     55.2413E-03
             970             302     59.0353E-03     61.9913E-03
             973             302     59.0353E-03     61.9913E-03
            2203             302     59.0353E-03     61.9913E-03
            2206             302     59.0353E-03     61.9913E-03
            2209             303     56.8362E-03     62.8847E-03
             973             303     56.8362E-03     62.8847E-03
             976             303     56.8362E-03     62.8847E-03
            2206             303     56.8362E-03     62.8847E-03
            2212             304     48.5260E-03     52.1958E-03
             976             304     48.5260E-03     52.1958E-03
            2209             304     48.5260E-03     52.1958E-03
             979             304     48.5260E-03     52.1958E-03
             979             305     53.4981E-03     51.4388E-03
            2215             305     53.4981E-03     51.4388E-03
            2212             305     53.4981E-03     51.4388E-03
             982             305     53.4981E-03     51.4388E-03
             985             306     60.2585E-03     54.0672E-03
            2215             306     60.2585E-03     54.0672E-03
            2218             306     60.2585E-03     54.0672E-03
             982             306     60.2585E-03     54.0672E-03
             985             307     58.1783E-03     53.5264E-03
             988             307     58.1783E-03     53.5264E-03
            2218             307     58.1783E-03     53.5264E-03
            2221             307     58.1783E-03     53.5264E-03
            2221             308     60.4447E-03     62.4891E-03
             988             308     60.4447E-03     62.4891E-03
             991             308     60.4447E-03     62.4891E-03
            2224             308     60.4447E-03     62.4891E-03
             994             309     57.9824E-03     64.3716E-03
             991             309     57.9824E-03     64.3716E-03
            2227             309     57.9824E-03     64.3716E-03
            2224             309     57.9824E-03     64.3716E-03
             997             310     49.2876E-03     52.8359E-03
            2230             310     49.2876E-03     52.8359E-03
            2227             310     49.2876E-03     52.8359E-03
             994             310     49.2876E-03     52.8359E-03
             997             311     42.2752E-03     42.4424E-03
            2230             311     42.2752E-03     42.4424E-03
            1000             311     42.2752E-03     42.4424E-03
            2233             311     42.2752E-03     42.4424E-03
            2328             312     88.3277E-03     78.4982E-03
            2327             312     88.3277E-03     78.4982E-03
            1000             312     88.3277E-03     78.4982E-03
             999             312     88.3277E-03     78.4982E-03
             999             313     150.194E-03     133.705E-03
             998             313     150.194E-03     133.705E-03
            2326             313     150.194E-03     133.705E-03
            2327             313     150.194E-03     133.705E-03
            1014             314     806.744E-06     812.958E-06
            1015             314     806.744E-06     812.958E-06
            1013             315     930.791E-06     932.635E-06
            1014             315     930.791E-06     932.635E-06
            1016             316     76.3077E-03     73.2873E-03
            2233             316     76.3077E-03     73.2873E-03
            1017             316     76.3077E-03     73.2873E-03
            2234             316     76.3077E-03     73.2873E-03
            2235             317     134.961E-03     129.181E-03
            2234             317     134.961E-03     129.181E-03
            1018             317     134.961E-03     129.181E-03
            1017             317     134.961E-03     129.181E-03
            1021             318     179.164E-03     176.374E-03
            1018             318     179.164E-03     176.374E-03
            1024             319     192.765E-03     196.024E-03
            1021             319     192.765E-03     196.024E-03
            1024             320     204.152E-03     205.353E-03
            1027             320     204.152E-03     205.353E-03
            1030             321     215.688E-03     208.798E-03
            1027             321     215.688E-03     208.798E-03
            1030             322     168.217E-03     160.134E-03
            1029             322     168.217E-03     160.134E-03
            2903             322     168.217E-03     160.134E-03
            2902             322     168.217E-03     160.134E-03
            1028             323     93.0622E-03     87.6050E-03
            1029             323     93.0622E-03     87.6050E-03
            2902             323     93.0622E-03     87.6050E-03
            2901             323     93.0622E-03     87.6050E-03
            1028             324     50.4767E-03     52.3513E-03
            2337             324     50.4767E-03     52.3513E-03
            1025             324     50.4767E-03     52.3513E-03
            2340             324     50.4767E-03     52.3513E-03
            2334             325     60.6966E-03     63.2673E-03
            1022             325     60.6966E-03     63.2673E-03
            2337             325     60.6966E-03     63.2673E-03
            1025             325     60.6966E-03     63.2673E-03
            2334             326     64.0784E-03     59.6962E-03
            1022             326     64.0784E-03     59.6962E-03
            2331             326     64.0784E-03     59.6962E-03
            1019             326     64.0784E-03     59.6962E-03
            1019             327     65.5044E-03     57.1030E-03
            2331             327     65.5044E-03     57.1030E-03
            2328             327     65.5044E-03     57.1030E-03
            1016             327     65.5044E-03     57.1030E-03
            2335             396     214.636E-03     215.987E-03
            2338             396     214.636E-03     215.987E-03
            2332             397     208.325E-03     207.794E-03
            2335             397     208.325E-03     207.794E-03
            2329             398     195.268E-03     201.670E-03
            2332             398     195.268E-03     201.670E-03
            2329             399     188.159E-03     176.223E-03
            2326             399     188.159E-03     176.223E-03
            2903             400     222.572E-03     216.620E-03
            2906             400     222.572E-03     216.620E-03
            2906             401     226.596E-03     222.346E-03
            2909             401     226.596E-03     222.346E-03
            2909             402     191.873E-03     196.642E-03
            2912             402     191.873E-03     196.642E-03
            2912             403     155.973E-03     155.456E-03
            2915             403     155.973E-03     155.456E-03
            2239             428     212.974E-03     208.592E-03
            2236             428     212.974E-03     208.592E-03
            2239             429     217.734E-03     214.595E-03
            2242             429     217.734E-03     214.595E-03
            2245             430     183.920E-03     189.141E-03
            2242             430     183.920E-03     189.141E-03
            2245             431     149.756E-03     148.669E-03
            2248             431     149.756E-03     148.669E-03
            2339             440     160.656E-03     162.002E-03
            2338             440     160.656E-03     162.002E-03
            2237             440     160.656E-03     162.002E-03
            2236             440     160.656E-03     162.002E-03
            2340             441     87.2261E-03     89.5146E-03
            2237             441     87.2261E-03     89.5146E-03
            2339             441     87.2261E-03     89.5146E-03
            2238             441     87.2261E-03     89.5146E-03
            2901             442     91.5828E-03     92.0667E-03
            2241             442     91.5828E-03     92.0667E-03
            2904             442     91.5828E-03     92.0667E-03
            2238             442     91.5828E-03     92.0667E-03
            2904             443     120.249E-03     121.992E-03
            2907             443     120.249E-03     121.992E-03
            2244             443     120.249E-03     121.992E-03
            2241             443     120.249E-03     121.992E-03
            2244             444     133.504E-03     134.111E-03
            2907             444     133.504E-03     134.111E-03
            2910             444     133.504E-03     134.111E-03
            2247             444     133.504E-03     134.111E-03
            2250             445     139.581E-03     137.741E-03
            2247             445     139.581E-03     137.741E-03
            2913             445     139.581E-03     137.741E-03
            2910             445     139.581E-03     137.741E-03
            2943             446     131.445E-03     128.989E-03
            2942             446     131.445E-03     128.989E-03
            2249             446     131.445E-03     128.989E-03
            2250             446     131.445E-03     128.989E-03
            2942             447     146.508E-03     142.528E-03
            2941             447     146.508E-03     142.528E-03
            2249             447     146.508E-03     142.528E-03
            2248             447     146.508E-03     142.528E-03
            2944             452     150.001E-03     149.875E-03
            2941             452     150.001E-03     149.875E-03
            2947             453     152.344E-03     149.003E-03
            2944             453     152.344E-03     149.003E-03
            2947             454     162.524E-03     159.775E-03
            2950             454     162.524E-03     159.775E-03
            2950             455     132.073E-03     131.691E-03
            2953             455     132.073E-03     131.691E-03
            2956             456     111.249E-03     111.030E-03
            2953             456     111.249E-03     111.030E-03
            2959             457     95.8889E-03     96.4486E-03
            2956             457     95.8889E-03     96.4486E-03
            2962             458     85.6542E-03     88.2816E-03
            2959             458     85.6542E-03     88.2816E-03
            2962             459     87.9101E-03     90.1964E-03
            2965             459     87.9101E-03     90.1964E-03
            2968             460     77.3792E-03     77.5675E-03
            2965             460     77.3792E-03     77.5675E-03
            2914             474     133.868E-03     131.022E-03
            2342             474     133.868E-03     131.022E-03
            2341             474     133.868E-03     131.022E-03
            2913             474     133.868E-03     131.022E-03
            2915             475     150.920E-03     146.700E-03
            2914             475     150.920E-03     146.700E-03
            2342             475     150.920E-03     146.700E-03
            2343             475     150.920E-03     146.700E-03
            2346             476     154.618E-03     154.347E-03
            2343             476     154.618E-03     154.347E-03
            2346             477     155.687E-03     152.803E-03
            2349             477     155.687E-03     152.803E-03
            2352             478     166.011E-03     162.510E-03
            2349             478     166.011E-03     162.510E-03
            2355             479     134.777E-03     134.219E-03
            2352             479     134.777E-03     134.219E-03
            2355             480     113.479E-03     112.757E-03
            2358             480     113.479E-03     112.757E-03
            2361             481     97.3394E-03     97.5925E-03
            2358             481     97.3394E-03     97.5925E-03
            2364             482     86.2142E-03     88.5177E-03
            2361             482     86.2142E-03     88.5177E-03
            2364             483     87.0831E-03     89.2223E-03
            2367             483     87.0831E-03     89.2223E-03
            2370             484     76.5671E-03     76.7577E-03
            2367             484     76.5671E-03     76.7577E-03
            2887             485     32.0604E-03     31.8313E-03
            2370             485     32.0604E-03     31.8313E-03
            2369             485     32.0604E-03     31.8313E-03
            2888             485     32.0604E-03     31.8313E-03
            2368             486     31.9502E-03     31.7312E-03
            2886             486     31.9502E-03     31.7312E-03
            2369             486     31.9502E-03     31.7312E-03
            2887             486     31.9502E-03     31.7312E-03
            2365             487     93.4710E-03     92.3804E-03
            2970             487     93.4710E-03     92.3804E-03
            2368             487     93.4710E-03     92.3804E-03
            2967             487     93.4710E-03     92.3804E-03
            2964             488     128.087E-03     125.537E-03
            2967             488     128.087E-03     125.537E-03
            2362             488     128.087E-03     125.537E-03
            2365             488     128.087E-03     125.537E-03
            2362             489     135.453E-03     132.506E-03
            2964             489     135.453E-03     132.506E-03
            2359             489     135.453E-03     132.506E-03
            2961             489     135.453E-03     132.506E-03
            2359             490     139.842E-03     138.345E-03
            2961             490     139.842E-03     138.345E-03
            2356             490     139.842E-03     138.345E-03
            2958             490     139.842E-03     138.345E-03
            2353             491     140.994E-03     142.092E-03
            2955             491     140.994E-03     142.092E-03
            2958             491     140.994E-03     142.092E-03
            2356             491     140.994E-03     142.092E-03
            2952             492     136.164E-03     139.377E-03
            2350             492     136.164E-03     139.377E-03
            2353             492     136.164E-03     139.377E-03
            2955             492     136.164E-03     139.377E-03
            2952             493     123.620E-03     126.190E-03
            2949             493     123.620E-03     126.190E-03
            2347             493     123.620E-03     126.190E-03
            2350             493     123.620E-03     126.190E-03
            2949             494     122.982E-03     123.667E-03
            2946             494     122.982E-03     123.667E-03
            2344             494     122.982E-03     123.667E-03
            2347             494     122.982E-03     123.667E-03
            2943             495     118.518E-03     118.445E-03
            2341             495     118.518E-03     118.445E-03
            2946             495     118.518E-03     118.445E-03
            2344             495     118.518E-03     118.445E-03
            2888             569     935.826E-06     924.676E-06
            2891             569     935.826E-06     924.676E-06
            2894             570     732.547E-06     744.033E-06
            2891             570     732.547E-06     744.033E-06
            2897             571     644.850E-06     660.252E-06
            2894             571     644.850E-06     660.252E-06
            2897             572     673.734E-06     687.436E-06
            2900             572     673.734E-06     687.436E-06
            2968             593     32.0478E-03     31.8189E-03
            2821             593     32.0478E-03     31.8189E-03
            2822             593     32.0478E-03     31.8189E-03
            2969             593     32.0478E-03     31.8189E-03
            2823             594     31.9439E-03     31.7250E-03
            2969             594     31.9439E-03     31.7250E-03
            2970             594     31.9439E-03     31.7250E-03
            2822             594     31.9439E-03     31.7250E-03
            2889             595     951.548E-06     968.868E-06
            2823             595     951.548E-06     968.868E-06
            2826             595     951.548E-06     968.868E-06
            2886             595     951.548E-06     968.868E-06
            2826             596     1.02456E-03     1.04746E-03
            2889             596     1.02456E-03     1.04746E-03
            2892             596     1.02456E-03     1.04746E-03
            2829             596     1.02456E-03     1.04746E-03
            2895             597     1.02922E-03     1.04095E-03
            2892             597     1.02922E-03     1.04095E-03
            2832             597     1.02922E-03     1.04095E-03
            2829             597     1.02922E-03     1.04095E-03
            2835             598     976.750E-06     977.604E-06
            2895             598     976.750E-06     977.604E-06
            2898             598     976.750E-06     977.604E-06
            2832             598     976.750E-06     977.604E-06
            2834             599     929.908E-06     930.968E-06
            2835             599     929.908E-06     930.968E-06
            2834             600     806.196E-06     812.435E-06
            2833             600     806.196E-06     812.435E-06
            2830             601     673.734E-06     687.436E-06
            2833             601     673.734E-06     687.436E-06
            2827             602     644.850E-06     660.252E-06
            2830             602     644.850E-06     660.252E-06
            2827             603     732.547E-06     744.033E-06
            2824             603     732.547E-06     744.033E-06
            2824             604     935.826E-06     924.676E-06
            2821             604     935.826E-06     924.676E-06
            2899             609     806.196E-06     812.435E-06
            2900             609     806.196E-06     812.435E-06
            2898             610     929.908E-06     930.968E-06
            2899             610     929.908E-06     930.968E-06
             885            1399     934.130E-06     938.250E-06
             884            1399     934.130E-06     938.250E-06
             881            1399     934.130E-06     938.250E-06
             882            1399     934.130E-06     938.250E-06
             882            1400     950.465E-06     967.738E-06
             885            1400     950.465E-06     967.738E-06
             883            1400     950.465E-06     967.738E-06
             886            1400     950.465E-06     967.738E-06
             885            1401     841.371E-06     854.451E-06
             884            1401     841.371E-06     854.451E-06
             887            1401     841.371E-06     854.451E-06
             888            1401     841.371E-06     854.451E-06
             885            1402     986.826E-06     1.00520E-03
             889            1402     986.826E-06     1.00520E-03
             886            1402     986.826E-06     1.00520E-03
             888            1402     986.826E-06     1.00520E-03
             887            1403     792.585E-06     803.386E-06
             890            1403     792.585E-06     803.386E-06
             888            1403     792.585E-06     803.386E-06
             891            1403     792.585E-06     803.386E-06
             889            1404     980.810E-06     990.668E-06
             888            1404     980.810E-06     990.668E-06
             892            1404     980.810E-06     990.668E-06
             891            1404     980.810E-06     990.668E-06
             890            1405     801.337E-06     811.024E-06
             893            1405     801.337E-06     811.024E-06
             891            1405     801.337E-06     811.024E-06
             894            1405     801.337E-06     811.024E-06
             891            1406     950.935E-06     955.485E-06
             895            1406     950.935E-06     955.485E-06
             894            1406     950.935E-06     955.485E-06
             892            1406     950.935E-06     955.485E-06
             900            1407     47.7186E-03     47.5909E-03
             897            1407     47.7186E-03     47.5909E-03
             899            1407     47.7186E-03     47.5909E-03
             896            1407     47.7186E-03     47.5909E-03
             897            1408     51.4816E-03     51.4752E-03
             900            1408     51.4816E-03     51.4752E-03
             901            1408     51.4816E-03     51.4752E-03
             898            1408     51.4816E-03     51.4752E-03
             903            1409     45.2060E-03     44.9184E-03
             900            1409     45.2060E-03     44.9184E-03
             902            1409     45.2060E-03     44.9184E-03
             899            1409     45.2060E-03     44.9184E-03
             900            1410     50.6506E-03     50.2249E-03
             903            1410     50.6506E-03     50.2249E-03
             901            1410     50.6506E-03     50.2249E-03
             904            1410     50.6506E-03     50.2249E-03
             902            1411     42.8294E-03     42.7961E-03
             905            1411     42.8294E-03     42.7961E-03
             903            1411     42.8294E-03     42.7961E-03
             906            1411     42.8294E-03     42.7961E-03
             903            1412     51.6102E-03     50.6472E-03
             906            1412     51.6102E-03     50.6472E-03
             907            1412     51.6102E-03     50.6472E-03
             904            1412     51.6102E-03     50.6472E-03
             905            1413     44.9152E-03     45.1693E-03
             909            1413     44.9152E-03     45.1693E-03
             908            1413     44.9152E-03     45.1693E-03
             906            1413     44.9152E-03     45.1693E-03
             910            1414     53.5733E-03     52.8327E-03
             906            1414     53.5733E-03     52.8327E-03
             907            1414     53.5733E-03     52.8327E-03
             909            1414     53.5733E-03     52.8327E-03
             911            1415     48.4530E-03     48.4378E-03
             912            1415     48.4530E-03     48.4378E-03
             909            1415     48.4530E-03     48.4378E-03
             908            1415     48.4530E-03     48.4378E-03
             912            1416     54.9229E-03     54.8862E-03
             910            1416     54.9229E-03     54.8862E-03
             913            1416     54.9229E-03     54.8862E-03
             909            1416     54.9229E-03     54.8862E-03
             915            1417     54.8271E-03     54.9461E-03
             914            1417     54.8271E-03     54.9461E-03
             911            1417     54.8271E-03     54.9461E-03
             912            1417     54.8271E-03     54.9461E-03
             912            1418     55.9198E-03     56.6962E-03
             915            1418     55.9198E-03     56.6962E-03
             916            1418     55.9198E-03     56.6962E-03
             913            1418     55.9198E-03     56.6962E-03
             915            1419     61.4259E-03     60.8852E-03
             917            1419     61.4259E-03     60.8852E-03
             918            1419     61.4259E-03     60.8852E-03
             914            1419     61.4259E-03     60.8852E-03
             916            1420     53.5955E-03     54.3237E-03
             915            1420     53.5955E-03     54.3237E-03
             918            1420     53.5955E-03     54.3237E-03
             919            1420     53.5955E-03     54.3237E-03
             917            1421     56.8281E-03     54.1856E-03
             921            1421     56.8281E-03     54.1856E-03
             918            1421     56.8281E-03     54.1856E-03
             920            1421     56.8281E-03     54.1856E-03
             921            1422     52.4505E-03     51.1267E-03
             922            1422     52.4505E-03     51.1267E-03
             918            1422     52.4505E-03     51.1267E-03
             919            1422     52.4505E-03     51.1267E-03
             921            1423     53.3362E-03     52.0074E-03
             923            1423     53.3362E-03     52.0074E-03
             924            1423     53.3362E-03     52.0074E-03
             920            1423     53.3362E-03     52.0074E-03
             925            1424     54.6907E-03     52.1071E-03
             924            1424     54.6907E-03     52.1071E-03
             922            1424     54.6907E-03     52.1071E-03
             921            1424     54.6907E-03     52.1071E-03
             927            1425     60.1769E-03     60.8795E-03
             924            1425     60.1769E-03     60.8795E-03
             926            1425     60.1769E-03     60.8795E-03
             923            1425     60.1769E-03     60.8795E-03
             928            1426     56.7106E-03     55.2455E-03
             925            1426     56.7106E-03     55.2455E-03
             924            1426     56.7106E-03     55.2455E-03
             927            1426     56.7106E-03     55.2455E-03
             929            1427     66.5731E-03     66.7850E-03
             930            1427     66.5731E-03     66.7850E-03
             926            1427     66.5731E-03     66.7850E-03
             927            1427     66.5731E-03     66.7850E-03
             931            1428     59.1161E-03     58.8524E-03
             928            1428     59.1161E-03     58.8524E-03
             927            1428     59.1161E-03     58.8524E-03
             930            1428     59.1161E-03     58.8524E-03
             929            1429     73.1309E-03     72.9368E-03
             932            1429     73.1309E-03     72.9368E-03
             933            1429     73.1309E-03     72.9368E-03
             930            1429     73.1309E-03     72.9368E-03
             931            1430     61.7646E-03     62.5954E-03
             930            1430     61.7646E-03     62.5954E-03
             934            1430     61.7646E-03     62.5954E-03
             933            1430     61.7646E-03     62.5954E-03
             933            1431     81.2196E-03     81.7941E-03
             935            1431     81.2196E-03     81.7941E-03
             936            1431     81.2196E-03     81.7941E-03
             932            1431     81.2196E-03     81.7941E-03
             934            1432     63.6389E-03     65.9314E-03
             936            1432     63.6389E-03     65.9314E-03
             937            1432     63.6389E-03     65.9314E-03
             933            1432     63.6389E-03     65.9314E-03
             935            1433     87.8334E-03     86.4567E-03
             939            1433     87.8334E-03     86.4567E-03
             936            1433     87.8334E-03     86.4567E-03
             938            1433     87.8334E-03     86.4567E-03
             937            1434     60.3988E-03     61.5609E-03
             936            1434     60.3988E-03     61.5609E-03
             939            1434     60.3988E-03     61.5609E-03
             940            1434     60.3988E-03     61.5609E-03
             939            1435     81.8017E-03     76.1025E-03
             942            1435     81.8017E-03     76.1025E-03
             938            1435     81.8017E-03     76.1025E-03
             941            1435     81.8017E-03     76.1025E-03
             939            1436     60.0263E-03     57.2768E-03
             942            1436     60.0263E-03     57.2768E-03
             943            1436     60.0263E-03     57.2768E-03
             940            1436     60.0263E-03     57.2768E-03
             945            1437     79.2448E-03     76.6883E-03
             941            1437     79.2448E-03     76.6883E-03
             942            1437     79.2448E-03     76.6883E-03
             944            1437     79.2448E-03     76.6883E-03
             942            1438     64.1457E-03     60.5578E-03
             946            1438     64.1457E-03     60.5578E-03
             943            1438     64.1457E-03     60.5578E-03
             945            1438     64.1457E-03     60.5578E-03
             947            1439     88.0590E-03     89.6986E-03
             945            1439     88.0590E-03     89.6986E-03
             944            1439     88.0590E-03     89.6986E-03
             948            1439     88.0590E-03     89.6986E-03
             949            1440     66.3267E-03     65.4022E-03
             948            1440     66.3267E-03     65.4022E-03
             946            1440     66.3267E-03     65.4022E-03
             945            1440     66.3267E-03     65.4022E-03
             947            1441     95.0179E-03     95.8803E-03
             948            1441     95.0179E-03     95.8803E-03
             950            1441     95.0179E-03     95.8803E-03
             951            1441     95.0179E-03     95.8803E-03
             949            1442     69.4238E-03     70.9571E-03
             948            1442     69.4238E-03     70.9571E-03
             951            1442     69.4238E-03     70.9571E-03
             952            1442     69.4238E-03     70.9571E-03
             953            1443     103.504E-03     105.060E-03
             950            1443     103.504E-03     105.060E-03
             951            1443     103.504E-03     105.060E-03
             954            1443     103.504E-03     105.060E-03
             952            1444     71.5206E-03     74.8932E-03
             954            1444     71.5206E-03     74.8932E-03
             951            1444     71.5206E-03     74.8932E-03
             955            1444     71.5206E-03     74.8932E-03
             957            1445     109.730E-03     107.684E-03
             954            1445     109.730E-03     107.684E-03
             953            1445     109.730E-03     107.684E-03
             956            1445     109.730E-03     107.684E-03
             954            1446     67.5867E-03     68.7660E-03
             955            1446     67.5867E-03     68.7660E-03
             958            1446     67.5867E-03     68.7660E-03
             957            1446     67.5867E-03     68.7660E-03
             959            1447     103.920E-03     95.1049E-03
             957            1447     103.920E-03     95.1049E-03
             956            1447     103.920E-03     95.1049E-03
             960            1447     103.920E-03     95.1049E-03
             960            1448     67.6193E-03     63.1152E-03
             957            1448     67.6193E-03     63.1152E-03
             961            1448     67.6193E-03     63.1152E-03
             958            1448     67.6193E-03     63.1152E-03
             963            1449     102.036E-03     98.0401E-03
             960            1449     102.036E-03     98.0401E-03
             962            1449     102.036E-03     98.0401E-03
             959            1449     102.036E-03     98.0401E-03
             964            1450     72.7132E-03     67.5858E-03
             960            1450     72.7132E-03     67.5858E-03
             963            1450     72.7132E-03     67.5858E-03
             961            1450     72.7132E-03     67.5858E-03
             963            1451     111.168E-03     112.975E-03
             965            1451     111.168E-03     112.975E-03
             962            1451     111.168E-03     112.975E-03
             966            1451     111.168E-03     112.975E-03
             963            1452     74.9430E-03     73.4773E-03
             967            1452     74.9430E-03     73.4773E-03
             964            1452     74.9430E-03     73.4773E-03
             966            1452     74.9430E-03     73.4773E-03
             966            1453     118.530E-03     119.055E-03
             969            1453     118.530E-03     119.055E-03
             965            1453     118.530E-03     119.055E-03
             968            1453     118.530E-03     119.055E-03
             967            1454     78.0571E-03     78.3730E-03
             966            1454     78.0571E-03     78.3730E-03
             969            1454     78.0571E-03     78.3730E-03
             970            1454     78.0571E-03     78.3730E-03
             972            1455     125.518E-03     125.580E-03
             969            1455     125.518E-03     125.580E-03
             968            1455     125.518E-03     125.580E-03
             971            1455     125.518E-03     125.580E-03
             973            1456     81.7006E-03     83.9298E-03
             969            1456     81.7006E-03     83.9298E-03
             972            1456     81.7006E-03     83.9298E-03
             970            1456     81.7006E-03     83.9298E-03
             971            1457     133.838E-03     135.554E-03
             974            1457     133.838E-03     135.554E-03
             975            1457     133.838E-03     135.554E-03
             972            1457     133.838E-03     135.554E-03
             973            1458     83.8942E-03     88.4815E-03
             972            1458     83.8942E-03     88.4815E-03
             976            1458     83.8942E-03     88.4815E-03
             975            1458     83.8942E-03     88.4815E-03
             974            1459     139.065E-03     135.823E-03
             978            1459     139.065E-03     135.823E-03
             975            1459     139.065E-03     135.823E-03
             977            1459     139.065E-03     135.823E-03
             979            1460     79.0335E-03     79.9021E-03
             978            1460     79.0335E-03     79.9021E-03
             975            1460     79.0335E-03     79.9021E-03
             976            1460     79.0335E-03     79.9021E-03
             977            1461     131.986E-03     120.458E-03
             980            1461     131.986E-03     120.458E-03
             978            1461     131.986E-03     120.458E-03
             981            1461     131.986E-03     120.458E-03
             981            1462     79.0865E-03     73.0053E-03
             982            1462     79.0865E-03     73.0053E-03
             979            1462     79.0865E-03     73.0053E-03
             978            1462     79.0865E-03     73.0053E-03
             983            1463     131.055E-03     126.484E-03
             981            1463     131.055E-03     126.484E-03
             984            1463     131.055E-03     126.484E-03
             980            1463     131.055E-03     126.484E-03
             984            1464     85.2763E-03     79.8129E-03
             981            1464     85.2763E-03     79.8129E-03
             982            1464     85.2763E-03     79.8129E-03
             985            1464     85.2763E-03     79.8129E-03
             983            1465     141.007E-03     144.051E-03
             984            1465     141.007E-03     144.051E-03
             987            1465     141.007E-03     144.051E-03
             986            1465     141.007E-03     144.051E-03
             984            1466     87.8178E-03     87.6656E-03
             985            1466     87.8178E-03     87.6656E-03
             987            1466     87.8178E-03     87.6656E-03
             988            1466     87.8178E-03     87.6656E-03
             990            1467     147.745E-03     149.489E-03
             987            1467     147.745E-03     149.489E-03
             986            1467     147.745E-03     149.489E-03
             989            1467     147.745E-03     149.489E-03
             990            1468     91.3295E-03     94.7609E-03
             987            1468     91.3295E-03     94.7609E-03
             988            1468     91.3295E-03     94.7609E-03
             991            1468     91.3295E-03     94.7609E-03
             993            1469     156.151E-03     159.103E-03
             990            1469     156.151E-03     159.103E-03
             992            1469     156.151E-03     159.103E-03
             989            1469     156.151E-03     159.103E-03
             990            1470     93.3582E-03     98.7903E-03
             993            1470     93.3582E-03     98.7903E-03
             991            1470     93.3582E-03     98.7903E-03
             994            1470     93.3582E-03     98.7903E-03
             996            1471     160.735E-03     156.977E-03
             995            1471     160.735E-03     156.977E-03
             993            1471     160.735E-03     156.977E-03
             992            1471     160.735E-03     156.977E-03
             997            1472     87.9685E-03     88.4925E-03
             993            1472     87.9685E-03     88.4925E-03
             994            1472     87.9685E-03     88.4925E-03
             996            1472     87.9685E-03     88.4925E-03
             996            1473     152.834E-03     146.661E-03
             995            1473     152.834E-03     146.661E-03
             998            1473     152.834E-03     146.661E-03
             999            1473     152.834E-03     146.661E-03
             997            1474     81.0466E-03     78.4921E-03
             999            1474     81.0466E-03     78.4921E-03
            1000            1474     81.0466E-03     78.4921E-03
             996            1474     81.0466E-03     78.4921E-03
            1001            1475     950.465E-06     967.738E-06
            1005            1475     950.465E-06     967.738E-06
            1002            1475     950.465E-06     967.738E-06
            1004            1475     950.465E-06     967.738E-06
            1006            1476     934.130E-06     938.250E-06
            1002            1476     934.130E-06     938.250E-06
            1005            1476     934.130E-06     938.250E-06
            1003            1476     934.130E-06     938.250E-06
            1005            1477     986.826E-06     1.00520E-03
            1008            1477     986.826E-06     1.00520E-03
            1004            1477     986.826E-06     1.00520E-03
            1007            1477     986.826E-06     1.00520E-03
            1005            1478     841.371E-06     854.451E-06
            1009            1478     841.371E-06     854.451E-06
            1008            1478     841.371E-06     854.451E-06
            1006            1478     841.371E-06     854.451E-06
            1008            1479     980.810E-06     990.668E-06
            1011            1479     980.810E-06     990.668E-06
            1010            1479     980.810E-06     990.668E-06
            1007            1479     980.810E-06     990.668E-06
            1012            1480     792.585E-06     803.386E-06
            1008            1480     792.585E-06     803.386E-06
            1011            1480     792.585E-06     803.386E-06
            1009            1480     792.585E-06     803.386E-06
            1011            1481     950.935E-06     955.485E-06
            1014            1481     950.935E-06     955.485E-06
            1010            1481     950.935E-06     955.485E-06
            1013            1481     950.935E-06     955.485E-06
            1011            1482     801.337E-06     811.024E-06
            1014            1482     801.337E-06     811.024E-06
            1015            1482     801.337E-06     811.024E-06
            1012            1482     801.337E-06     811.024E-06
            1016            1483     89.3596E-03     85.7452E-03
            1017            1483     89.3596E-03     85.7452E-03
            1020            1483     89.3596E-03     85.7452E-03
            1019            1483     89.3596E-03     85.7452E-03
            1020            1484     147.551E-03     144.983E-03
            1017            1484     147.551E-03     144.983E-03
            1021            1484     147.551E-03     144.983E-03
            1018            1484     147.551E-03     144.983E-03
            1019            1485     92.6448E-03     94.3150E-03
            1022            1485     92.6448E-03     94.3150E-03
            1023            1485     92.6448E-03     94.3150E-03
            1020            1485     92.6448E-03     94.3150E-03
            1021            1486     158.016E-03     162.674E-03
            1020            1486     158.016E-03     162.674E-03
            1023            1486     158.016E-03     162.674E-03
            1024            1486     158.016E-03     162.674E-03
            1025            1487     94.5520E-03     98.1715E-03
            1022            1487     94.5520E-03     98.1715E-03
            1026            1487     94.5520E-03     98.1715E-03
            1023            1487     94.5520E-03     98.1715E-03
            1023            1488     166.577E-03     170.221E-03
            1024            1488     166.577E-03     170.221E-03
            1026            1488     166.577E-03     170.221E-03
            1027            1488     166.577E-03     170.221E-03
            1029            1489     88.9301E-03     85.0382E-03
            1028            1489     88.9301E-03     85.0382E-03
            1026            1489     88.9301E-03     85.0382E-03
            1025            1489     88.9301E-03     85.0382E-03
            1029            1490     170.876E-03     165.181E-03
            1030            1490     170.876E-03     165.181E-03
            1026            1490     170.876E-03     165.181E-03
            1027            1490     170.876E-03     165.181E-03
            2135            2411     51.4883E-03     51.4369E-03
            2134            2411     51.4883E-03     51.4369E-03
            2131            2411     51.4883E-03     51.4369E-03
            2132            2411     51.4883E-03     51.4369E-03
            2132            2412     47.5671E-03     47.6560E-03
            2133            2412     47.5671E-03     47.6560E-03
            2135            2412     47.5671E-03     47.6560E-03
            2136            2412     47.5671E-03     47.6560E-03
            2134            2413     50.7125E-03     50.2427E-03
            2138            2413     50.7125E-03     50.2427E-03
            2135            2413     50.7125E-03     50.2427E-03
            2137            2413     50.7125E-03     50.2427E-03
            2138            2414     45.4064E-03     45.1599E-03
            2136            2414     45.4064E-03     45.1599E-03
            2135            2414     45.4064E-03     45.1599E-03
            2139            2414     45.4064E-03     45.1599E-03
            2141            2415     51.6910E-03     50.5160E-03
            2137            2415     51.6910E-03     50.5160E-03
            2138            2415     51.6910E-03     50.5160E-03
            2140            2415     51.6910E-03     50.5160E-03
            2141            2416     43.0116E-03     42.8468E-03
            2138            2416     43.0116E-03     42.8468E-03
            2139            2416     43.0116E-03     42.8468E-03
            2142            2416     43.0116E-03     42.8468E-03
            2144            2417     53.2905E-03     52.5435E-03
            2141            2417     53.2905E-03     52.5435E-03
            2140            2417     53.2905E-03     52.5435E-03
            2143            2417     53.2905E-03     52.5435E-03
            2144            2418     44.1607E-03     44.5803E-03
            2141            2418     44.1607E-03     44.5803E-03
            2145            2418     44.1607E-03     44.5803E-03
            2142            2418     44.1607E-03     44.5803E-03
            2143            2419     54.2300E-03     54.4120E-03
            2144            2419     54.2300E-03     54.4120E-03
            2146            2419     54.2300E-03     54.4120E-03
            2147            2419     54.2300E-03     54.4120E-03
            2148            2420     47.0593E-03     47.4015E-03
            2145            2420     47.0593E-03     47.4015E-03
            2144            2420     47.0593E-03     47.4015E-03
            2147            2420     47.0593E-03     47.4015E-03
            2150            2421     55.0446E-03     55.9117E-03
            2146            2421     55.0446E-03     55.9117E-03
            2149            2421     55.0446E-03     55.9117E-03
            2147            2421     55.0446E-03     55.9117E-03
            2151            2422     53.0695E-03     53.3829E-03
            2148            2422     53.0695E-03     53.3829E-03
            2147            2422     53.0695E-03     53.3829E-03
            2150            2422     53.0695E-03     53.3829E-03
            2149            2423     52.5408E-03     53.4796E-03
            2150            2423     52.5408E-03     53.4796E-03
            2153            2423     52.5408E-03     53.4796E-03
            2152            2423     52.5408E-03     53.4796E-03
            2154            2424     59.2528E-03     59.1252E-03
            2153            2424     59.2528E-03     59.1252E-03
            2151            2424     59.2528E-03     59.1252E-03
            2150            2424     59.2528E-03     59.1252E-03
            2152            2425     51.4111E-03     50.1811E-03
            2153            2425     51.4111E-03     50.1811E-03
            2156            2425     51.4111E-03     50.1811E-03
            2155            2425     51.4111E-03     50.1811E-03
            2153            2426     54.7281E-03     52.1350E-03
            2154            2426     54.7281E-03     52.1350E-03
            2157            2426     54.7281E-03     52.1350E-03
            2156            2426     54.7281E-03     52.1350E-03
            2159            2427     53.4487E-03     50.4978E-03
            2155            2427     53.4487E-03     50.4978E-03
            2158            2427     53.4487E-03     50.4978E-03
            2156            2427     53.4487E-03     50.4978E-03
            2160            2428     50.7329E-03     48.9715E-03
            2157            2428     50.7329E-03     48.9715E-03
            2156            2428     50.7329E-03     48.9715E-03
            2159            2428     50.7329E-03     48.9715E-03
            2161            2429     54.7305E-03     52.9907E-03
            2162            2429     54.7305E-03     52.9907E-03
            2159            2429     54.7305E-03     52.9907E-03
            2158            2429     54.7305E-03     52.9907E-03
            2162            2430     56.2780E-03     57.0336E-03
            2160            2430     56.2780E-03     57.0336E-03
            2159            2430     56.2780E-03     57.0336E-03
            2163            2430     56.2780E-03     57.0336E-03
            2162            2431     56.4971E-03     56.3491E-03
            2164            2431     56.4971E-03     56.3491E-03
            2165            2431     56.4971E-03     56.3491E-03
            2161            2431     56.4971E-03     56.3491E-03
            2162            2432     62.0470E-03     62.4411E-03
            2165            2432     62.0470E-03     62.4411E-03
            2163            2432     62.0470E-03     62.4411E-03
            2166            2432     62.0470E-03     62.4411E-03
            2168            2433     58.7048E-03     59.7128E-03
            2167            2433     58.7048E-03     59.7128E-03
            2165            2433     58.7048E-03     59.7128E-03
            2164            2433     58.7048E-03     59.7128E-03
            2168            2434     68.1308E-03     68.2358E-03
            2169            2434     68.1308E-03     68.2358E-03
            2166            2434     68.1308E-03     68.2358E-03
            2165            2434     68.1308E-03     68.2358E-03
            2170            2435     60.3317E-03     62.7556E-03
            2167            2435     60.3317E-03     62.7556E-03
            2171            2435     60.3317E-03     62.7556E-03
            2168            2435     60.3317E-03     62.7556E-03
            2171            2436     75.9047E-03     76.6088E-03
            2169            2436     75.9047E-03     76.6088E-03
            2172            2436     75.9047E-03     76.6088E-03
            2168            2436     75.9047E-03     76.6088E-03
            2174            2437     56.8078E-03     58.5405E-03
            2173            2437     56.8078E-03     58.5405E-03
            2170            2437     56.8078E-03     58.5405E-03
            2171            2437     56.8078E-03     58.5405E-03
            2171            2438     82.0335E-03     81.3554E-03
            2175            2438     82.0335E-03     81.3554E-03
            2172            2438     82.0335E-03     81.3554E-03
            2174            2438     82.0335E-03     81.3554E-03
            2173            2439     56.5098E-03     54.0888E-03
            2174            2439     56.5098E-03     54.0888E-03
            2176            2439     56.5098E-03     54.0888E-03
            2177            2439     56.5098E-03     54.0888E-03
            2174            2440     75.8459E-03     70.3601E-03
            2178            2440     75.8459E-03     70.3601E-03
            2175            2440     75.8459E-03     70.3601E-03
            2177            2440     75.8459E-03     70.3601E-03
            2177            2441     60.2651E-03     56.1393E-03
            2176            2441     60.2651E-03     56.1393E-03
            2180            2441     60.2651E-03     56.1393E-03
            2179            2441     60.2651E-03     56.1393E-03
            2181            2442     72.5255E-03     69.4228E-03
            2178            2442     72.5255E-03     69.4228E-03
            2177            2442     72.5255E-03     69.4228E-03
            2180            2442     72.5255E-03     69.4228E-03
            2183            2443     61.2646E-03     59.9230E-03
            2182            2443     61.2646E-03     59.9230E-03
            2180            2443     61.2646E-03     59.9230E-03
            2179            2443     61.2646E-03     59.9230E-03
            2181            2444     80.0709E-03     81.7286E-03
            2180            2444     80.0709E-03     81.7286E-03
            2184            2444     80.0709E-03     81.7286E-03
            2183            2444     80.0709E-03     81.7286E-03
            2183            2445     63.5488E-03     65.0153E-03
            2185            2445     63.5488E-03     65.0153E-03
            2182            2445     63.5488E-03     65.0153E-03
            2186            2445     63.5488E-03     65.0153E-03
            2183            2446     86.5079E-03     87.5688E-03
            2186            2446     86.5079E-03     87.5688E-03
            2184            2446     86.5079E-03     87.5688E-03
            2187            2446     86.5079E-03     87.5688E-03
            2185            2447     65.2974E-03     68.8562E-03
            2186            2447     65.2974E-03     68.8562E-03
            2188            2447     65.2974E-03     68.8562E-03
            2189            2447     65.2974E-03     68.8562E-03
            2189            2448     94.6033E-03     96.3131E-03
            2187            2448     94.6033E-03     96.3131E-03
            2190            2448     94.6033E-03     96.3131E-03
            2186            2448     94.6033E-03     96.3131E-03
            2192            2449     60.9971E-03     63.1427E-03
            2188            2449     60.9971E-03     63.1427E-03
            2191            2449     60.9971E-03     63.1427E-03
            2189            2449     60.9971E-03     63.1427E-03
            2189            2450     100.334E-03     99.2130E-03
            2193            2450     100.334E-03     99.2130E-03
            2190            2450     100.334E-03     99.2130E-03
            2192            2450     100.334E-03     99.2130E-03
            2191            2451     61.3109E-03     57.4018E-03
            2195            2451     61.3109E-03     57.4018E-03
            2192            2451     61.3109E-03     57.4018E-03
            2194            2451     61.3109E-03     57.4018E-03
            2193            2452     94.3915E-03     86.0097E-03
            2195            2452     94.3915E-03     86.0097E-03
            2196            2452     94.3915E-03     86.0097E-03
            2192            2452     94.3915E-03     86.0097E-03
            2194            2453     66.0322E-03     60.2690E-03
            2198            2453     66.0322E-03     60.2690E-03
            2195            2453     66.0322E-03     60.2690E-03
            2197            2453     66.0322E-03     60.2690E-03
            2198            2454     91.6799E-03     87.1217E-03
            2196            2454     91.6799E-03     87.1217E-03
            2195            2454     91.6799E-03     87.1217E-03
            2199            2454     91.6799E-03     87.1217E-03
            2197            2455     66.7386E-03     64.5131E-03
            2201            2455     66.7386E-03     64.5131E-03
            2200            2455     66.7386E-03     64.5131E-03
            2198            2455     66.7386E-03     64.5131E-03
            2199            2456     99.5231E-03     101.321E-03
            2202            2456     99.5231E-03     101.321E-03
            2201            2456     99.5231E-03     101.321E-03
            2198            2456     99.5231E-03     101.321E-03
            2201            2457     69.0686E-03     69.1948E-03
            2204            2457     69.0686E-03     69.1948E-03
            2200            2457     69.0686E-03     69.1948E-03
            2203            2457     69.0686E-03     69.1948E-03
            2204            2458     106.441E-03     107.143E-03
            2202            2458     106.441E-03     107.143E-03
            2205            2458     106.441E-03     107.143E-03
            2201            2458     106.441E-03     107.143E-03
            2206            2459     72.2449E-03     74.6102E-03
            2204            2459     72.2449E-03     74.6102E-03
            2203            2459     72.2449E-03     74.6102E-03
            2207            2459     72.2449E-03     74.6102E-03
            2205            2460     113.067E-03     113.428E-03
            2204            2460     113.067E-03     113.428E-03
            2207            2460     113.067E-03     113.428E-03
            2208            2460     113.067E-03     113.428E-03
            2210            2461     74.1767E-03     79.2099E-03
            2207            2461     74.1767E-03     79.2099E-03
            2209            2461     74.1767E-03     79.2099E-03
            2206            2461     74.1767E-03     79.2099E-03
            2210            2462     121.163E-03     123.054E-03
            2207            2462     121.163E-03     123.054E-03
            2211            2462     121.163E-03     123.054E-03
            2208            2462     121.163E-03     123.054E-03
            2209            2463     68.9536E-03     71.1797E-03
            2212            2463     68.9536E-03     71.1797E-03
            2210            2463     68.9536E-03     71.1797E-03
            2213            2463     68.9536E-03     71.1797E-03
            2210            2464     125.972E-03     123.809E-03
            2211            2464     125.972E-03     123.809E-03
            2213            2464     125.972E-03     123.809E-03
            2214            2464     125.972E-03     123.809E-03
            2215            2465     69.5418E-03     64.2538E-03
            2213            2465     69.5418E-03     64.2538E-03
            2212            2465     69.5418E-03     64.2538E-03
            2216            2465     69.5418E-03     64.2538E-03
            2213            2466     118.772E-03     107.815E-03
            2214            2466     118.772E-03     107.815E-03
            2216            2466     118.772E-03     107.815E-03
            2217            2466     118.772E-03     107.815E-03
            2219            2467     75.3634E-03     69.0863E-03
            2218            2467     75.3634E-03     69.0863E-03
            2215            2467     75.3634E-03     69.0863E-03
            2216            2467     75.3634E-03     69.0863E-03
            2220            2468     116.898E-03     111.804E-03
            2219            2468     116.898E-03     111.804E-03
            2216            2468     116.898E-03     111.804E-03
            2217            2468     116.898E-03     111.804E-03
            2218            2469     75.9357E-03     74.8682E-03
            2221            2469     75.9357E-03     74.8682E-03
            2219            2469     75.9357E-03     74.8682E-03
            2222            2469     75.9357E-03     74.8682E-03
            2223            2470     125.514E-03     128.573E-03
            2222            2470     125.514E-03     128.573E-03
            2220            2470     125.514E-03     128.573E-03
            2219            2470     125.514E-03     128.573E-03
            2221            2471     78.4262E-03     81.5327E-03
            2225            2471     78.4262E-03     81.5327E-03
            2222            2471     78.4262E-03     81.5327E-03
            2224            2471     78.4262E-03     81.5327E-03
            2223            2472     131.868E-03     133.820E-03
            2226            2472     131.868E-03     133.820E-03
            2225            2472     131.868E-03     133.820E-03
            2222            2472     131.868E-03     133.820E-03
            2227            2473     80.1417E-03     86.0673E-03
            2228            2473     80.1417E-03     86.0673E-03
            2225            2473     80.1417E-03     86.0673E-03
            2224            2473     80.1417E-03     86.0673E-03
            2228            2474     139.911E-03     143.059E-03
            2225            2474     139.911E-03     143.059E-03
            2226            2474     139.911E-03     143.059E-03
            2229            2474     139.911E-03     143.059E-03
            2227            2475     74.3078E-03     76.5385E-03
            2231            2475     74.3078E-03     76.5385E-03
            2228            2475     74.3078E-03     76.5385E-03
            2230            2475     74.3078E-03     76.5385E-03
            2229            2476     144.097E-03     141.551E-03
            2231            2476     144.097E-03     141.551E-03
            2228            2476     144.097E-03     141.551E-03
            2232            2476     144.097E-03     141.551E-03
            2234            2477     66.5190E-03     65.2637E-03
            2230            2477     66.5190E-03     65.2637E-03
            2231            2477     66.5190E-03     65.2637E-03
            2233            2477     66.5190E-03     65.2637E-03
            2232            2478     136.290E-03     131.456E-03
            2235            2478     136.290E-03     131.456E-03
            2234            2478     136.290E-03     131.456E-03
            2231            2478     136.290E-03     131.456E-03
            2240            2479     173.642E-03     171.528E-03
            2239            2479     173.642E-03     171.528E-03
            2237            2479     173.642E-03     171.528E-03
            2236            2479     173.642E-03     171.528E-03
            2237            2480     111.891E-03     112.374E-03
            2238            2480     111.891E-03     112.374E-03
            2240            2480     111.891E-03     112.374E-03
            2241            2480     111.891E-03     112.374E-03
            2240            2481     186.237E-03     187.244E-03
            2243            2481     186.237E-03     187.244E-03
            2242            2481     186.237E-03     187.244E-03
            2239            2481     186.237E-03     187.244E-03
            2240            2482     136.821E-03     140.409E-03
            2243            2482     136.821E-03     140.409E-03
            2241            2482     136.821E-03     140.409E-03
            2244            2482     136.821E-03     140.409E-03
            2246            2483     171.499E-03     176.325E-03
            2245            2483     171.499E-03     176.325E-03
            2242            2483     171.499E-03     176.325E-03
            2243            2483     171.499E-03     176.325E-03
            2243            2484     145.786E-03     148.211E-03
            2244            2484     145.786E-03     148.211E-03
            2247            2484     145.786E-03     148.211E-03
            2246            2484     145.786E-03     148.211E-03
            2248            2485     150.396E-03     147.507E-03
            2245            2485     150.396E-03     147.507E-03
            2249            2485     150.396E-03     147.507E-03
            2246            2485     150.396E-03     147.507E-03
            2249            2486     144.911E-03     141.556E-03
            2247            2486     144.911E-03     141.556E-03
            2250            2486     144.911E-03     141.556E-03
            2246            2486     144.911E-03     141.556E-03
            2326            2539     156.719E-03     143.661E-03
            2329            2539     156.719E-03     143.661E-03
            2330            2539     156.719E-03     143.661E-03
            2327            2539     156.719E-03     143.661E-03
            2330            2540     96.7539E-03     83.7041E-03
            2328            2540     96.7539E-03     83.7041E-03
            2331            2540     96.7539E-03     83.7041E-03
            2327            2540     96.7539E-03     83.7041E-03
            2330            2541     161.523E-03     166.979E-03
            2332            2541     161.523E-03     166.979E-03
            2333            2541     161.523E-03     166.979E-03
            2329            2541     161.523E-03     166.979E-03
            2331            2542     96.9557E-03     96.1875E-03
            2330            2542     96.9557E-03     96.1875E-03
            2334            2542     96.9557E-03     96.1875E-03
            2333            2542     96.9557E-03     96.1875E-03
            2335            2543     169.660E-03     174.054E-03
            2333            2543     169.660E-03     174.054E-03
            2336            2543     169.660E-03     174.054E-03
            2332            2543     169.660E-03     174.054E-03
            2337            2544     96.1424E-03     102.797E-03
            2336            2544     96.1424E-03     102.797E-03
            2334            2544     96.1424E-03     102.797E-03
            2333            2544     96.1424E-03     102.797E-03
            2335            2545     169.361E-03     173.031E-03
            2339            2545     169.361E-03     173.031E-03
            2336            2545     169.361E-03     173.031E-03
            2338            2545     169.361E-03     173.031E-03
            2340            2546     86.6217E-03     93.1330E-03
            2337            2546     86.6217E-03     93.1330E-03
            2339            2546     86.6217E-03     93.1330E-03
            2336            2546     86.6217E-03     93.1330E-03
            2342            2547     131.616E-03     131.476E-03
            2344            2547     131.616E-03     131.476E-03
            2341            2547     131.616E-03     131.476E-03
            2345            2547     131.616E-03     131.476E-03
            2345            2548     149.344E-03     149.154E-03
            2342            2548     149.344E-03     149.154E-03
            2343            2548     149.344E-03     149.154E-03
            2346            2548     149.344E-03     149.154E-03
            2348            2549     133.215E-03     133.748E-03
            2345            2549     133.215E-03     133.748E-03
            2347            2549     133.215E-03     133.748E-03
            2344            2549     133.215E-03     133.748E-03
            2345            2550     149.387E-03     148.114E-03
            2346            2550     149.387E-03     148.114E-03
            2348            2550     149.387E-03     148.114E-03
            2349            2550     149.387E-03     148.114E-03
            2351            2551     131.533E-03     133.394E-03
            2350            2551     131.533E-03     133.394E-03
            2347            2551     131.533E-03     133.394E-03
            2348            2551     131.533E-03     133.394E-03
            2349            2552     152.570E-03     151.442E-03
            2352            2552     152.570E-03     151.442E-03
            2351            2552     152.570E-03     151.442E-03
            2348            2552     152.570E-03     151.442E-03
            2350            2553     137.553E-03     139.638E-03
            2354            2553     137.553E-03     139.638E-03
            2351            2553     137.553E-03     139.638E-03
            2353            2553     137.553E-03     139.638E-03
            2354            2554     136.743E-03     136.927E-03
            2352            2554     136.743E-03     136.927E-03
            2355            2554     136.743E-03     136.927E-03
            2351            2554     136.743E-03     136.927E-03
            2353            2555     134.998E-03     135.504E-03
            2357            2555     134.998E-03     135.504E-03
            2356            2555     134.998E-03     135.504E-03
            2354            2555     134.998E-03     135.504E-03
            2355            2556     121.116E-03     120.767E-03
            2358            2556     121.116E-03     120.767E-03
            2354            2556     121.116E-03     120.767E-03
            2357            2556     121.116E-03     120.767E-03
            2360            2557     132.002E-03     131.383E-03
            2357            2557     132.002E-03     131.383E-03
            2359            2557     132.002E-03     131.383E-03
            2356            2557     132.002E-03     131.383E-03
            2357            2558     110.684E-03     110.985E-03
            2358            2558     110.684E-03     110.985E-03
            2360            2558     110.684E-03     110.985E-03
            2361            2558     110.684E-03     110.985E-03
            2362            2559     129.586E-03     127.528E-03
            2359            2559     129.586E-03     127.528E-03
            2363            2559     129.586E-03     127.528E-03
            2360            2559     129.586E-03     127.528E-03
            2363            2560     104.970E-03     105.492E-03
            2360            2560     104.970E-03     105.492E-03
            2364            2560     104.970E-03     105.492E-03
            2361            2560     104.970E-03     105.492E-03
            2363            2561     124.880E-03     122.552E-03
            2366            2561     124.880E-03     122.552E-03
            2362            2561     124.880E-03     122.552E-03
            2365            2561     124.880E-03     122.552E-03
            2363            2562     104.392E-03     104.390E-03
            2366            2562     104.392E-03     104.390E-03
            2367            2562     104.392E-03     104.390E-03
            2364            2562     104.392E-03     104.390E-03
            2366            2563     92.3128E-03     91.2090E-03
            2365            2563     92.3128E-03     91.2090E-03
            2368            2563     92.3128E-03     91.2090E-03
            2369            2563     92.3128E-03     91.2090E-03
            2367            2564     83.8661E-03     83.4139E-03
            2366            2564     83.8661E-03     83.4139E-03
            2370            2564     83.8661E-03     83.4139E-03
            2369            2564     83.8661E-03     83.4139E-03
            2821            2917     947.190E-06     950.987E-06
            2824            2917     947.190E-06     950.987E-06
            2822            2917     947.190E-06     950.987E-06
            2825            2917     947.190E-06     950.987E-06
            2825            2918     955.051E-06     973.083E-06
            2823            2918     955.051E-06     973.083E-06
            2822            2918     955.051E-06     973.083E-06
            2826            2918     955.051E-06     973.083E-06
            2828            2919     845.140E-06     858.309E-06
            2825            2919     845.140E-06     858.309E-06
            2827            2919     845.140E-06     858.309E-06
            2824            2919     845.140E-06     858.309E-06
            2828            2920     991.147E-06     1.01002E-03
            2829            2920     991.147E-06     1.01002E-03
            2825            2920     991.147E-06     1.01002E-03
            2826            2920     991.147E-06     1.01002E-03
            2828            2921     790.776E-06     801.902E-06
            2830            2921     790.776E-06     801.902E-06
            2827            2921     790.776E-06     801.902E-06
            2831            2921     790.776E-06     801.902E-06
            2832            2922     982.963E-06     992.251E-06
            2829            2922     982.963E-06     992.251E-06
            2828            2922     982.963E-06     992.251E-06
            2831            2922     982.963E-06     992.251E-06
            2834            2923     799.993E-06     810.069E-06
            2831            2923     799.993E-06     810.069E-06
            2830            2923     799.993E-06     810.069E-06
            2833            2923     799.993E-06     810.069E-06
            2834            2924     951.501E-06     955.153E-06
            2831            2924     951.501E-06     955.153E-06
            2832            2924     951.501E-06     955.153E-06
            2835            2924     951.501E-06     955.153E-06
            2887            2961     955.051E-06     973.083E-06
            2886            2961     955.051E-06     973.083E-06
            2889            2961     955.051E-06     973.083E-06
            2890            2961     955.051E-06     973.083E-06
            2891            2962     947.190E-06     950.987E-06
            2887            2962     947.190E-06     950.987E-06
            2888            2962     947.190E-06     950.987E-06
            2890            2962     947.190E-06     950.987E-06
            2889            2963     991.147E-06     1.01002E-03
            2890            2963     991.147E-06     1.01002E-03
            2892            2963     991.147E-06     1.01002E-03
            2893            2963     991.147E-06     1.01002E-03
            2893            2964     845.140E-06     858.309E-06
            2894            2964     845.140E-06     858.309E-06
            2890            2964     845.140E-06     858.309E-06
            2891            2964     845.140E-06     858.309E-06
            2892            2965     982.963E-06     992.251E-06
            2896            2965     982.963E-06     992.251E-06
            2893            2965     982.963E-06     992.251E-06
            2895            2965     982.963E-06     992.251E-06
            2897            2966     790.776E-06     801.902E-06
            2893            2966     790.776E-06     801.902E-06
            2896            2966     790.776E-06     801.902E-06
            2894            2966     790.776E-06     801.902E-06
            2896            2967     951.501E-06     955.153E-06
            2895            2967     951.501E-06     955.153E-06
            2899            2967     951.501E-06     955.153E-06
            2898            2967     951.501E-06     955.153E-06
            2900            2968     799.993E-06     810.069E-06
            2897            2968     799.993E-06     810.069E-06
            2899            2968     799.993E-06     810.069E-06
            2896            2968     799.993E-06     810.069E-06
            2905            2969     117.924E-03     117.551E-03
            2901            2969     117.924E-03     117.551E-03
            2902            2969     117.924E-03     117.551E-03
            2904            2969     117.924E-03     117.551E-03
            2903            2970     182.364E-03     178.937E-03
            2906            2970     182.364E-03     178.937E-03
            2902            2970     182.364E-03     178.937E-03
            2905            2970     182.364E-03     178.937E-03
            2905            2971     141.646E-03     144.320E-03
            2904            2971     141.646E-03     144.320E-03
            2907            2971     141.646E-03     144.320E-03
            2908            2971     141.646E-03     144.320E-03
            2909            2972     194.146E-03     193.964E-03
            2908            2972     194.146E-03     193.964E-03
            2905            2972     194.146E-03     193.964E-03
            2906            2972     194.146E-03     193.964E-03
            2911            2973     149.670E-03     152.378E-03
            2908            2973     149.670E-03     152.378E-03
            2910            2973     149.670E-03     152.378E-03
            2907            2973     149.670E-03     152.378E-03
            2908            2974     178.350E-03     183.045E-03
            2909            2974     178.350E-03     183.045E-03
            2911            2974     178.350E-03     183.045E-03
            2912            2974     178.350E-03     183.045E-03
            2910            2975     147.541E-03     144.911E-03
            2913            2975     147.541E-03     144.911E-03
            2914            2975     147.541E-03     144.911E-03
            2911            2975     147.541E-03     144.911E-03
            2914            2976     155.340E-03     153.282E-03
            2912            2976     155.340E-03     153.282E-03
            2915            2976     155.340E-03     153.282E-03
            2911            2976     155.340E-03     153.282E-03
            2942            2993     145.600E-03     145.473E-03
            2945            2993     145.600E-03     145.473E-03
            2941            2993     145.600E-03     145.473E-03
            2944            2993     145.600E-03     145.473E-03
            2945            2994     129.536E-03     129.484E-03
            2946            2994     129.536E-03     129.484E-03
            2942            2994     129.536E-03     129.484E-03
            2943            2994     129.536E-03     129.484E-03
            2948            2995     146.744E-03     144.908E-03
            2947            2995     146.744E-03     144.908E-03
            2944            2995     146.744E-03     144.908E-03
            2945            2995     146.744E-03     144.908E-03
            2948            2996     131.883E-03     132.039E-03
            2945            2996     131.883E-03     132.039E-03
            2949            2996     131.883E-03     132.039E-03
            2946            2996     131.883E-03     132.039E-03
            2950            2997     149.838E-03     149.227E-03
            2947            2997     149.838E-03     149.227E-03
            2951            2997     149.838E-03     149.227E-03
            2948            2997     149.838E-03     149.227E-03
            2948            2998     130.227E-03     132.322E-03
            2951            2998     130.227E-03     132.322E-03
            2949            2998     130.227E-03     132.322E-03
            2952            2998     130.227E-03     132.322E-03
            2951            2999     134.552E-03     134.931E-03
            2953            2999     134.552E-03     134.931E-03
            2950            2999     134.552E-03     134.931E-03
            2954            2999     134.552E-03     134.931E-03
            2952            3000     136.480E-03     138.641E-03
            2954            3000     136.480E-03     138.641E-03
            2951            3000     136.480E-03     138.641E-03
            2955            3000     136.480E-03     138.641E-03
            2957            3001     119.340E-03     119.454E-03
            2954            3001     119.340E-03     119.454E-03
            2956            3001     119.340E-03     119.454E-03
            2953            3001     119.340E-03     119.454E-03
            2955            3002     134.088E-03     134.915E-03
            2957            3002     134.088E-03     134.915E-03
            2958            3002     134.088E-03     134.915E-03
            2954            3002     134.088E-03     134.915E-03
            2959            3003     109.518E-03     110.189E-03
            2957            3003     109.518E-03     110.189E-03
            2960            3003     109.518E-03     110.189E-03
            2956            3003     109.518E-03     110.189E-03
            2960            3004     131.428E-03     131.116E-03
            2958            3004     131.428E-03     131.116E-03
            2961            3004     131.428E-03     131.116E-03
            2957            3004     131.428E-03     131.116E-03
            2959            3005     104.610E-03     105.300E-03
            2962            3005     104.610E-03     105.300E-03
            2960            3005     104.610E-03     105.300E-03
            2963            3005     104.610E-03     105.300E-03
            2963            3006     129.514E-03     127.371E-03
            2961            3006     129.514E-03     127.371E-03
            2964            3006     129.514E-03     127.371E-03
            2960            3006     129.514E-03     127.371E-03
            2963            3007     105.073E-03     104.920E-03
            2966            3007     105.073E-03     104.920E-03
            2965            3007     105.073E-03     104.920E-03
            2962            3007     105.073E-03     104.920E-03
            2964            3008     125.175E-03     122.585E-03
            2966            3008     125.175E-03     122.585E-03
            2963            3008     125.175E-03     122.585E-03
            2967            3008     125.175E-03     122.585E-03
            2966            3009     84.4468E-03     83.8797E-03
            2965            3009     84.4468E-03     83.8797E-03
            2968            3009     84.4468E-03     83.8797E-03
            2969            3009     84.4468E-03     83.8797E-03
            2967            3010     92.4979E-03     91.3024E-03
            2970            3010     92.4979E-03     91.3024E-03
            2966            3010     92.4979E-03     91.3024E-03
            2969            3010     92.4979E-03     91.3024E-03


  Minimum                            644.850E-06     659.935E-06
      At Element                            2897            1012
            Node                             571             154

  Maximum                            226.596E-03     222.346E-03
      At Element                            2909            2909
            Node                             401             401

           Total                         129.178         128.112


